Hf2Ni2Sn1   [TET,TET,tP10] (STD_PRIM doi
   1.00000000000000     
     7.0584908027685973    0.0000000000000000    0.0000000000000000
     0.0000000000000000    7.0584908027685973    0.0000000000000000
     0.0000000000000000   -0.0000000000000000    3.4067297127994083
   4   4   2
Direct
  0.1643015311753022  0.6643015311753022  0.5000000000000000
  0.8356984688246978  0.3356984688246978  0.5000000000000000
  0.3356984688246978  0.1643015311753022  0.5000000000000000
  0.6643015311753022  0.8356984688246978  0.5000000000000000
  0.3750238223542043  0.8750238223542043  0.0000000000000000
  0.6249761776457957  0.1249761776457957 -0.0000000000000000
  0.1249761776457957  0.3750238223542043  0.0000000000000000
  0.8750238223542043  0.6249761776457957 -0.0000000000000000
  0.0000000000000000  0.0000000000000000  0.0000000000000000
  0.5000000000000000  0.5000000000000000  0.0000000000000000
 
  0.00000000E+00  0.00000000E+00  0.00000000E+00
  0.00000000E+00  0.00000000E+00  0.00000000E+00
  0.00000000E+00  0.00000000E+00  0.00000000E+00
  0.00000000E+00  0.00000000E+00  0.00000000E+00
  0.00000000E+00  0.00000000E+00  0.00000000E+00
  0.00000000E+00  0.00000000E+00  0.00000000E+00
  0.00000000E+00  0.00000000E+00  0.00000000E+00
  0.00000000E+00  0.00000000E+00  0.00000000E+00
  0.00000000E+00  0.00000000E+00  0.00000000E+00
  0.00000000E+00  0.00000000E+00  0.00000000E+00
