Pd1Sn1   [ORC,ORC,oP8] (STD_PRIM doi:10.
   1.00000000000000     
     3.9788278433590722    0.0000000000000000    0.0000000000000000
     0.0000000000000000    6.3160764102830518    0.0000000000000000
     0.0000000000000000    0.0000000000000000    6.4598724591777898
   4   4
Direct
  0.2500000000000000  0.0113906922865061  0.8122891406295200
  0.7500000000000000  0.4886093077134940  0.3122891406295200
  0.7500000000000000  0.9886093077134940  0.1877108593704800
  0.2500000000000000  0.5113906922865060  0.6877108593704800
  0.2500000000000000  0.1917376030865120  0.4057036740583383
  0.7500000000000000  0.3082623969134881  0.9057036740583384
  0.7500000000000000  0.8082623969134880  0.5942963259416616
  0.2500000000000000  0.6917376030865120  0.0942963259416616
 
  0.00000000E+00  0.00000000E+00  0.00000000E+00
  0.00000000E+00  0.00000000E+00  0.00000000E+00
  0.00000000E+00  0.00000000E+00  0.00000000E+00
  0.00000000E+00  0.00000000E+00  0.00000000E+00
  0.00000000E+00  0.00000000E+00  0.00000000E+00
  0.00000000E+00  0.00000000E+00  0.00000000E+00
  0.00000000E+00  0.00000000E+00  0.00000000E+00
  0.00000000E+00  0.00000000E+00  0.00000000E+00
