Al0.4C0.2Nb0.6   [CUB,CUB,cP24] (STD_PRI
   1.00000000000000     
     7.1357264351464886   -0.0000000000000000   -0.0000000000000000
     0.0000000000000000    7.1357264351464886   -0.0000000000000000
     0.0000000000000000    0.0000000000000000    7.1357264351464886
   8   4  12
Direct
  0.0703193454828729  0.0703193454828729  0.0703193454828729
  0.4296806545171271  0.9296806545171271  0.5703193454828729
  0.9296806545171271  0.5703193454828729  0.4296806545171271
  0.5703193454828729  0.4296806545171271  0.9296806545171271
  0.8203193454828729  0.3203193454828729  0.1796806545171271
  0.6796806545171271  0.6796806545171271  0.6796806545171271
  0.3203193454828729  0.1796806545171271  0.8203193454828729
  0.1796806545171271  0.8203193454828729  0.3203193454828729
  0.3750000000000000  0.3750000000000000  0.3750000000000000
  0.1250000000000000  0.6250000000000000  0.8750000000000000
  0.6250000000000000  0.8750000000000000  0.1250000000000000
  0.8750000000000000  0.1250000000000000  0.6250000000000000
  0.1250000000000000  0.2054022934571414  0.4554022934571414
  0.3750000000000000  0.7945977065428586  0.9554022934571414
  0.8750000000000000  0.7054022934571414  0.0445977065428586
  0.6250000000000000  0.2945977065428586  0.5445977065428586
  0.4554022934571414  0.1250000000000000  0.2054022934571414
  0.9554022934571414  0.3750000000000000  0.7945977065428586
  0.0445977065428586  0.8750000000000000  0.7054022934571414
  0.5445977065428586  0.6250000000000000  0.2945977065428586
  0.2054022934571414  0.4554022934571414  0.1250000000000000
  0.7945977065428586  0.9554022934571414  0.3750000000000000
  0.7054022934571414  0.0445977065428586  0.8750000000000000
  0.2945977065428586  0.5445977065428586  0.6250000000000000
 
  0.00000000E+00  0.00000000E+00  0.00000000E+00
  0.00000000E+00  0.00000000E+00  0.00000000E+00
  0.00000000E+00  0.00000000E+00  0.00000000E+00
  0.00000000E+00  0.00000000E+00  0.00000000E+00
  0.00000000E+00  0.00000000E+00  0.00000000E+00
  0.00000000E+00  0.00000000E+00  0.00000000E+00
  0.00000000E+00  0.00000000E+00  0.00000000E+00
  0.00000000E+00  0.00000000E+00  0.00000000E+00
  0.00000000E+00  0.00000000E+00  0.00000000E+00
  0.00000000E+00  0.00000000E+00  0.00000000E+00
  0.00000000E+00  0.00000000E+00  0.00000000E+00
  0.00000000E+00  0.00000000E+00  0.00000000E+00
  0.00000000E+00  0.00000000E+00  0.00000000E+00
  0.00000000E+00  0.00000000E+00  0.00000000E+00
  0.00000000E+00  0.00000000E+00  0.00000000E+00
  0.00000000E+00  0.00000000E+00  0.00000000E+00
  0.00000000E+00  0.00000000E+00  0.00000000E+00
  0.00000000E+00  0.00000000E+00  0.00000000E+00
  0.00000000E+00  0.00000000E+00  0.00000000E+00
  0.00000000E+00  0.00000000E+00  0.00000000E+00
  0.00000000E+00  0.00000000E+00  0.00000000E+00
  0.00000000E+00  0.00000000E+00  0.00000000E+00
  0.00000000E+00  0.00000000E+00  0.00000000E+00
  0.00000000E+00  0.00000000E+00  0.00000000E+00
