O5Ti3   [ORCC,ORCC,oS32] (STD_PRIM doi:1
   1.00000000000000     
     1.9776126516039068   -5.1084340471905065    0.0000000000000000
     1.9776126516039068    5.1084340471905065    0.0000000000000000
     0.0000000000000000   -0.0000000000000000   10.0315918124673153
  10   6
Direct
  0.7422046966955892  0.2577953033044109  0.7500000000000000
  0.2577953033044109  0.7422046966955892  0.2500000000000000
  0.0461198711375738  0.9538801288624262  0.8811954826442306
  0.9538801288624262  0.0461198711375738  0.3811954826442306
  0.0461198711375738  0.9538801288624262  0.6188045173557694
  0.9538801288624262  0.0461198711375738  0.1188045173557694
  0.2983792043932590  0.7016207956067481  0.9183957862672121
  0.7016207956067481  0.2983792043932590  0.4183957862672121
  0.2983792043932590  0.7016207956067481  0.5816042137327879
  0.7016207956067481  0.2983792043932590  0.0816042137327879
  0.1826438597887398  0.8173561402112602  0.7500000000000000
  0.8173561402112602  0.1826438597887398  0.2500000000000000
  0.1413536735670509  0.8586463264329490  0.4339455997950816
  0.8586463264329490  0.1413536735670509  0.9339455997950816
  0.1413536735670509  0.8586463264329490  0.0660544002049184
  0.8586463264329490  0.1413536735670509  0.5660544002049184
 
  0.00000000E+00  0.00000000E+00  0.00000000E+00
  0.00000000E+00  0.00000000E+00  0.00000000E+00
  0.00000000E+00  0.00000000E+00  0.00000000E+00
  0.00000000E+00  0.00000000E+00  0.00000000E+00
  0.00000000E+00  0.00000000E+00  0.00000000E+00
  0.00000000E+00  0.00000000E+00  0.00000000E+00
  0.00000000E+00  0.00000000E+00  0.00000000E+00
  0.00000000E+00  0.00000000E+00  0.00000000E+00
  0.00000000E+00  0.00000000E+00  0.00000000E+00
  0.00000000E+00  0.00000000E+00  0.00000000E+00
  0.00000000E+00  0.00000000E+00  0.00000000E+00
  0.00000000E+00  0.00000000E+00  0.00000000E+00
  0.00000000E+00  0.00000000E+00  0.00000000E+00
  0.00000000E+00  0.00000000E+00  0.00000000E+00
  0.00000000E+00  0.00000000E+00  0.00000000E+00
  0.00000000E+00  0.00000000E+00  0.00000000E+00
