Dy1In1Ir1   [HEX,HEX,hP9] (STD_PRIM doi:
   1.00000000000000     
     3.7245353567835755   -6.4510844725358325    0.0000000000000000
     3.7244287575014576    6.4510229274116062    0.0000000000000000
     0.0000000000000000    0.0000000000000000    3.9634272180556112
   3   3   3
Direct
  0.0000029414418381  0.5944630125654666  0.0000000000000000
  0.4055399288763716  0.4055369874345334  0.0000000000000000
  0.5944594103682157 -0.0000000000000000  0.0000000000000000
  0.9999964805078734  0.2556785334566541  0.5000000000000000
  0.7443179470512192  0.7443214665433459  0.5000000000000000
  0.2556858873839979  0.0000000000000000  0.5000000000000000
  0.3333202955736571  0.6666476676000269  0.5000000000000000
  0.6666726279736301  0.3333523323999730  0.5000000000000000
  0.0000044808231899  0.0000000000000000  0.0000000000000000
 
  0.00000000E+00  0.00000000E+00  0.00000000E+00
  0.00000000E+00  0.00000000E+00  0.00000000E+00
  0.00000000E+00  0.00000000E+00  0.00000000E+00
  0.00000000E+00  0.00000000E+00  0.00000000E+00
  0.00000000E+00  0.00000000E+00  0.00000000E+00
  0.00000000E+00  0.00000000E+00  0.00000000E+00
  0.00000000E+00  0.00000000E+00  0.00000000E+00
  0.00000000E+00  0.00000000E+00  0.00000000E+00
  0.00000000E+00  0.00000000E+00  0.00000000E+00
