Gd2O7Sn2   [FCC,FCC,cF88] (STD_PRIM doi:
   1.22474500000000     
     0.0000000000000000    4.3604168375156656    4.3604168375156656
     4.3604168375156656    0.0000000000000000    4.3604168375156656
     4.3604168375156656    4.3604168375156656    0.0000000000000000
   4  14   4
Direct
  0.5000000000000000  0.5000000000000000  0.5000000000000000
  0.5000000000000000  0.0000000000000000  0.5000000000000000
  0.5000000000000000  0.5000000000000000 -0.0000000000000000
  0.0000000000000000  0.5000000000000000  0.5000000000000000
  0.0899820573589159  0.6600179426410842  0.6600179426410842
  0.6600179426410842  0.0899820573589159  0.0899820573589159
  0.6600179426410842  0.6600179426410842  0.0899820573589159
  0.0899820573589159  0.0899820573589159  0.6600179426410842
  0.6600179426410842  0.0899820573589159  0.6600179426410842
  0.0899820573589159  0.6600179426410842  0.0899820573589159
  0.9100179426410842  0.9100179426410842  0.3399820573589159
  0.3399820573589159  0.3399820573589159  0.9100179426410842
  0.3399820573589159  0.9100179426410842  0.9100179426410842
  0.9100179426410842  0.3399820573589159  0.3399820573589159
  0.3399820573589159  0.9100179426410842  0.3399820573589159
  0.9100179426410842  0.3399820573589159  0.9100179426410842
  0.6250000000000000  0.6250000000000000  0.6250000000000000
  0.3750000000000000  0.3750000000000000  0.3750000000000000
  0.0000000000000000 -0.0000000000000000 -0.0000000000000000
  0.0000000000000000  0.5000000000000000 -0.0000000000000000
  0.0000000000000000 -0.0000000000000000  0.5000000000000000
  0.5000000000000000  0.0000000000000000  0.0000000000000000
 
  0.00000000E+00  0.00000000E+00  0.00000000E+00
  0.00000000E+00  0.00000000E+00  0.00000000E+00
  0.00000000E+00  0.00000000E+00  0.00000000E+00
  0.00000000E+00  0.00000000E+00  0.00000000E+00
  0.00000000E+00  0.00000000E+00  0.00000000E+00
  0.00000000E+00  0.00000000E+00  0.00000000E+00
  0.00000000E+00  0.00000000E+00  0.00000000E+00
  0.00000000E+00  0.00000000E+00  0.00000000E+00
  0.00000000E+00  0.00000000E+00  0.00000000E+00
  0.00000000E+00  0.00000000E+00  0.00000000E+00
  0.00000000E+00  0.00000000E+00  0.00000000E+00
  0.00000000E+00  0.00000000E+00  0.00000000E+00
  0.00000000E+00  0.00000000E+00  0.00000000E+00
  0.00000000E+00  0.00000000E+00  0.00000000E+00
  0.00000000E+00  0.00000000E+00  0.00000000E+00
  0.00000000E+00  0.00000000E+00  0.00000000E+00
  0.00000000E+00  0.00000000E+00  0.00000000E+00
  0.00000000E+00  0.00000000E+00  0.00000000E+00
  0.00000000E+00  0.00000000E+00  0.00000000E+00
  0.00000000E+00  0.00000000E+00  0.00000000E+00
  0.00000000E+00  0.00000000E+00  0.00000000E+00
  0.00000000E+00  0.00000000E+00  0.00000000E+00
