Be5Pd1   [FCC,FCC,cF24] (STD_PRIM doi:10
   1.22474500000000     
     0.0000000000000000    2.4470514948989166    2.4470514948989166
     2.4470514948989166    0.0000000000000000    2.4470514948989166
     2.4470514948989166    2.4470514948989166   -0.0000000000000000
   5   1
Direct
  0.2500000000000000  0.2500000000000000  0.2500000000000000
  0.1254543161617762  0.6248485612794104  0.6248485612794104
  0.6248485612794104  0.1254543161617762  0.6248485612794104
  0.6248485612794104  0.6248485612794104  0.1254543161617762
  0.6248485612794104  0.6248485612794104  0.6248485612794104
  0.0000000000000000  0.0000000000000000  0.0000000000000000
 
  0.00000000E+00  0.00000000E+00  0.00000000E+00
  0.00000000E+00  0.00000000E+00  0.00000000E+00
  0.00000000E+00  0.00000000E+00  0.00000000E+00
  0.00000000E+00  0.00000000E+00  0.00000000E+00
  0.00000000E+00  0.00000000E+00  0.00000000E+00
  0.00000000E+00  0.00000000E+00  0.00000000E+00
