B4Cr1   [ORC,ORC,oP10] (STD_PRIM doi:10.
   1.00000000000000     
     2.8561830841227747    0.0000000000000000    0.0000000000000000
     0.0000000000000000    4.7219091318287116    0.0000000000000000
     0.0000000000000000    0.0000000000000000    5.4858808315963588
   8   2
Direct
  0.0000000000000000  0.1582398397874698  0.3738972302200594
  0.0000000000000000  0.8417601602125302  0.6261027697799406
  0.5000000000000000  0.3417601602125302  0.8738972302200594
  0.5000000000000000  0.6582398397874698  0.1261027697799406
  0.0000000000000000  0.2290632863002884  0.6834088402217873
  0.0000000000000000  0.7709367136997116  0.3165911597782127
  0.5000000000000000  0.2709367136997116  0.1834088402217873
  0.5000000000000000  0.7290632863002884  0.8165911597782127
  0.0000000000000000  0.0000000000000000  0.0000000000000000
  0.5000000000000000  0.5000000000000000  0.5000000000000000
 
  0.00000000E+00  0.00000000E+00  0.00000000E+00
  0.00000000E+00  0.00000000E+00  0.00000000E+00
  0.00000000E+00  0.00000000E+00  0.00000000E+00
  0.00000000E+00  0.00000000E+00  0.00000000E+00
  0.00000000E+00  0.00000000E+00  0.00000000E+00
  0.00000000E+00  0.00000000E+00  0.00000000E+00
  0.00000000E+00  0.00000000E+00  0.00000000E+00
  0.00000000E+00  0.00000000E+00  0.00000000E+00
  0.00000000E+00  0.00000000E+00  0.00000000E+00
  0.00000000E+00  0.00000000E+00  0.00000000E+00
