B1Fe2   [BCT,BCT1,tI12] (STD_PRIM doi:10
   1.00000000000000     
    -2.5842892785022369    2.5842892785022369    2.5630083654901781
     2.5842892785022369   -2.5842892785022369    2.5630083654901781
     2.5842892785022369    2.5842892785022369   -2.5630083654901781
   2   4
Direct
  0.7500000000000000  0.2500000000000000  0.5000000000000000
  0.2500000000000000  0.7500000000000000  0.5000000000000000
  0.7500463054773470  0.2500463054773470  0.0000926109547010
  0.2499536945226530  0.7499536945226530  0.9999073890452990
  0.2500463054773470  0.2499536945226530  0.5000000000000000
  0.7499536945226530  0.7500463054773470  0.5000000000000000
 
  0.00000000E+00  0.00000000E+00  0.00000000E+00
  0.00000000E+00  0.00000000E+00  0.00000000E+00
  0.00000000E+00  0.00000000E+00  0.00000000E+00
  0.00000000E+00  0.00000000E+00  0.00000000E+00
  0.00000000E+00  0.00000000E+00  0.00000000E+00
  0.00000000E+00  0.00000000E+00  0.00000000E+00
