Co1Ge1Ta1   [ORC,ORC,oP12] (STD_PRIM doi
   1.00000000000000     
     3.8344453473111937   -0.0000000000000000    0.0000000000000000
     0.0000000000000000    6.4817183991736176    0.0000000000000000
     0.0000000000000000    0.0000000000000000    7.3407255425136571
   4   4   4
Direct
  0.2500000000000000  0.1546486560132656  0.5655804137929367
  0.7500000000000000  0.3453513439867344  0.0655804137929367
  0.7500000000000000  0.8453513439867343  0.4344195862070633
  0.2500000000000000  0.6546486560132657  0.9344195862070633
  0.2500000000000000  0.7812541068007230  0.6181881124075586
  0.7500000000000000  0.7187458931992770  0.1181881124075586
  0.7500000000000000  0.2187458931992770  0.3818118875924414
  0.2500000000000000  0.2812541068007230  0.8818118875924414
  0.2500000000000000  0.0073732612953639  0.1701109207490558
  0.7500000000000000  0.4926267387046361  0.6701109207490559
  0.7500000000000000  0.9926267387046361  0.8298890792509441
  0.2500000000000000  0.5073732612953639  0.3298890792509442
 
  0.00000000E+00  0.00000000E+00  0.00000000E+00
  0.00000000E+00  0.00000000E+00  0.00000000E+00
  0.00000000E+00  0.00000000E+00  0.00000000E+00
  0.00000000E+00  0.00000000E+00  0.00000000E+00
  0.00000000E+00  0.00000000E+00  0.00000000E+00
  0.00000000E+00  0.00000000E+00  0.00000000E+00
  0.00000000E+00  0.00000000E+00  0.00000000E+00
  0.00000000E+00  0.00000000E+00  0.00000000E+00
  0.00000000E+00  0.00000000E+00  0.00000000E+00
  0.00000000E+00  0.00000000E+00  0.00000000E+00
  0.00000000E+00  0.00000000E+00  0.00000000E+00
  0.00000000E+00  0.00000000E+00  0.00000000E+00
