Rh5Tb1   [HEX,HEX,hP6] (STD_PRIM doi:10.
   1.00000000000000     
     2.5953699517044875   -4.4953126207897585    0.0000000000000000
     2.5952410047695631    4.4952381732421687    0.0000000000000000
     0.0000000000000000    0.0000000000000000    4.3326003876670089
   5   1
Direct
  0.6666862070271040  0.3333724140542152  0.0000000000000000
  0.3333137929728959  0.6666275859457848  0.0000000000000000
  0.0000000000000000  0.5000000000000000  0.5000000000000000
  0.5000000000000000  0.5000000000000000  0.5000000000000000
  0.5000000000000000  0.0000000000000000  0.5000000000000000
  0.0000000000000000  0.0000000000000000  0.0000000000000000
 
  0.00000000E+00  0.00000000E+00  0.00000000E+00
  0.00000000E+00  0.00000000E+00  0.00000000E+00
  0.00000000E+00  0.00000000E+00  0.00000000E+00
  0.00000000E+00  0.00000000E+00  0.00000000E+00
  0.00000000E+00  0.00000000E+00  0.00000000E+00
  0.00000000E+00  0.00000000E+00  0.00000000E+00
