H2Hf1   [BCT,BCT2,tI6] (STD_PRIM doi:10.
   1.00000000000000     
    -1.7394533956649072    1.7394533956649072    2.1561831873191539
     1.7394533956649072   -1.7394533956649072    2.1561831873191539
     1.7394533956649072    1.7394533956649072   -2.1561831873191539
   2   1
Direct
  0.7500000000000000  0.2500000000000000  0.5000000000000000
  0.2500000000000000  0.7500000000000000  0.5000000000000000
  0.0000000000000000  0.0000000000000000  0.0000000000000000
 
  0.00000000E+00  0.00000000E+00  0.00000000E+00
  0.00000000E+00  0.00000000E+00  0.00000000E+00
  0.00000000E+00  0.00000000E+00  0.00000000E+00
