Ga1Sn1Sr1 #194 - (Ga1Sn1Sr1_ICSD_166387)
   1.00000000000000     
     2.3232785705640135   -4.0240365243528684    0.0000000000000000
     2.3229301364701906    4.0238353558350051    0.0000000000000000
    -0.0000000000000000   -0.0000000000000000   18.7299634004576276
   4   4   4
Direct
  0.6666605173926287  0.3333210347852645  0.1623083099320896
  0.3333394826073713  0.6666789652147356  0.6623083099320896
  0.3333394826073713  0.6666789652147356  0.8376916900679104
  0.6666605173926287  0.3333210347852645  0.3376916900679104
  0.6666148116310339  0.3332296232620676  0.6150738625822474
  0.3333851883689662  0.6667703767379324  0.1150738625822474
  0.3333851883689662  0.6667703767379324  0.3849261374177526
  0.6666148116310339  0.3332296232620676  0.8849261374177526
 -0.0000000000000000 -0.0000000000000000 -0.0000000000000000
  0.0000000000000000  0.0000000000000000  0.5000000000000000
  0.9999454423303434  0.9998908846606870  0.2500000000000000
  0.0000545576696566  0.0001091153393131  0.7500000000000000
 
  0.00000000E+00  0.00000000E+00  0.00000000E+00
  0.00000000E+00  0.00000000E+00  0.00000000E+00
  0.00000000E+00  0.00000000E+00  0.00000000E+00
  0.00000000E+00  0.00000000E+00  0.00000000E+00
  0.00000000E+00  0.00000000E+00  0.00000000E+00
  0.00000000E+00  0.00000000E+00  0.00000000E+00
  0.00000000E+00  0.00000000E+00  0.00000000E+00
  0.00000000E+00  0.00000000E+00  0.00000000E+00
  0.00000000E+00  0.00000000E+00  0.00000000E+00
  0.00000000E+00  0.00000000E+00  0.00000000E+00
  0.00000000E+00  0.00000000E+00  0.00000000E+00
  0.00000000E+00  0.00000000E+00  0.00000000E+00
