Ag1Cl1   [MCL,MCL,mP4] (STD_PRIM doi:10.
   1.00000000000000     
     3.9868786652173469    0.0000000000000000    0.0000000000000000
     0.0000000000000000    3.9457572630585438   -0.2798210318668485
     0.0000000000000000    0.4450300396588045    5.6005188010571567
   2   2
Direct
  0.2500000000000000  0.7630171515503110  0.2515938058874739
  0.7500000000000000  0.2369828484496889  0.7484061941125262
  0.2500000000000000  0.7407405082969265  0.7508548599627808
  0.7500000000000000  0.2592594917030738  0.2491451400372192
 
  0.00000000E+00  0.00000000E+00  0.00000000E+00
  0.00000000E+00  0.00000000E+00  0.00000000E+00
  0.00000000E+00  0.00000000E+00  0.00000000E+00
  0.00000000E+00  0.00000000E+00  0.00000000E+00
