Pd1Tb1   [ORCC,ORCC,oS8] (STD_PRIM doi:1
   1.00000000000000     
     1.8666968005077338   -5.2770466021241527    0.0000000000000000
     1.8666968005077338    5.2770466021241527   -0.0000000000000000
     0.0000000000000000    0.0000000000000000    4.5795147411123924
   2   2
Direct
  0.4126385807455025  0.5873614192544976  0.7500000000000000
  0.5873614192544976  0.4126385807455025  0.2500000000000000
  0.1367445962398821  0.8632554037601180  0.7500000000000000
  0.8632554037601180  0.1367445962398821  0.2500000000000000
 
  0.00000000E+00  0.00000000E+00  0.00000000E+00
  0.00000000E+00  0.00000000E+00  0.00000000E+00
  0.00000000E+00  0.00000000E+00  0.00000000E+00
  0.00000000E+00  0.00000000E+00  0.00000000E+00
