Li1O2Rh1   [FCC,FCC,cF64] (STD_PRIM doi:
   1.22474500000000     
    -0.0000000000000000    3.5064175354540930    3.5064175354540930
     3.5064175354540930    0.0000000000000000    3.5064175354540930
     3.5064175354540930    3.5064175354540930    0.0000000000000000
   4   8   4
Direct
  0.3750000000000000  0.3750000000000000  0.3750000000000000
  0.3750000000000000  0.3750000000000000  0.8750000000000000
  0.8750000000000000  0.3750000000000000  0.3750000000000000
  0.3750000000000000  0.8750000000000000  0.3750000000000000
  0.1182601999254472  0.1182601999254472  0.1182601999254472
  0.1182601999254472  0.1182601999254472  0.6452194002236727
  0.6452194002236727  0.1182601999254472  0.1182601999254472
  0.1182601999254472  0.6452194002236727  0.1182601999254472
  0.6317398000745529  0.6317398000745529  0.1047805997763273
  0.6317398000745529  0.6317398000745529  0.6317398000745529
  0.1047805997763273  0.6317398000745529  0.6317398000745529
  0.6317398000745529  0.1047805997763273  0.6317398000745529
  0.8750000000000000  0.8750000000000000  0.8750000000000000
  0.8750000000000000  0.8750000000000000  0.3750000000000000
  0.3750000000000000  0.8750000000000000  0.8750000000000000
  0.8750000000000000  0.3750000000000000  0.8750000000000000
 
  0.00000000E+00  0.00000000E+00  0.00000000E+00
  0.00000000E+00  0.00000000E+00  0.00000000E+00
  0.00000000E+00  0.00000000E+00  0.00000000E+00
  0.00000000E+00  0.00000000E+00  0.00000000E+00
  0.00000000E+00  0.00000000E+00  0.00000000E+00
  0.00000000E+00  0.00000000E+00  0.00000000E+00
  0.00000000E+00  0.00000000E+00  0.00000000E+00
  0.00000000E+00  0.00000000E+00  0.00000000E+00
  0.00000000E+00  0.00000000E+00  0.00000000E+00
  0.00000000E+00  0.00000000E+00  0.00000000E+00
  0.00000000E+00  0.00000000E+00  0.00000000E+00
  0.00000000E+00  0.00000000E+00  0.00000000E+00
  0.00000000E+00  0.00000000E+00  0.00000000E+00
  0.00000000E+00  0.00000000E+00  0.00000000E+00
  0.00000000E+00  0.00000000E+00  0.00000000E+00
  0.00000000E+00  0.00000000E+00  0.00000000E+00
