As1Hg1Pd5   [TET,TET,tP7] (STD_PRIM doi:
   1.00000000000000     
     4.0411876130902522    0.0000000000000000   -0.0000000000000000
     0.0000000000000000    4.0411876130902522    0.0000000000000000
     0.0000000000000000    0.0000000000000000    7.1246960876261394
   1   1   5
Direct
  0.0000000000000000  0.0000000000000000  0.5000000000000000
  0.5000000000000000  0.5000000000000000  0.0000000000000000
  0.0000000000000000  0.0000000000000000  0.0000000000000000
  0.0000000000000000  0.5000000000000000  0.2934781597108111
  0.5000000000000000  0.0000000000000000  0.2934781597108111
 -0.0000000000000000  0.5000000000000000  0.7065218402891890
  0.5000000000000000  0.0000000000000000  0.7065218402891890
 
  0.00000000E+00  0.00000000E+00  0.00000000E+00
  0.00000000E+00  0.00000000E+00  0.00000000E+00
  0.00000000E+00  0.00000000E+00  0.00000000E+00
  0.00000000E+00  0.00000000E+00  0.00000000E+00
  0.00000000E+00  0.00000000E+00  0.00000000E+00
  0.00000000E+00  0.00000000E+00  0.00000000E+00
  0.00000000E+00  0.00000000E+00  0.00000000E+00
