Ge2Th1   [ORCC,ORCC,oS12] (STD_PRIM doi:
   1.00000000000000     
     2.0512964576530299   -8.4801935390103935    0.0000000000000000
     2.0512964576530299    8.4801935390103935    0.0000000000000000
     0.0000000000000000    0.0000000000000000    4.2352397668312456
   4   2
Direct
  0.5000000000000000  0.5000000000000000  0.0000000000000000
  0.0000000000000000  0.0000000000000000  0.5000000000000000
  0.7008388393556984  0.2991611606443015  0.5000000000000000
  0.2991611606443015  0.7008388393556984  0.5000000000000000
  0.8600888741449625  0.1399111258550375  0.0000000000000000
  0.1399111258550375  0.8600888741449625  0.0000000000000000
 
  0.00000000E+00  0.00000000E+00  0.00000000E+00
  0.00000000E+00  0.00000000E+00  0.00000000E+00
  0.00000000E+00  0.00000000E+00  0.00000000E+00
  0.00000000E+00  0.00000000E+00  0.00000000E+00
  0.00000000E+00  0.00000000E+00  0.00000000E+00
  0.00000000E+00  0.00000000E+00  0.00000000E+00
