C2Co1Th1   [ORCC,ORCC,oS8] (STD_PRIM doi
   1.00000000000000     
     2.2536146384748417   -3.1206005307619482    0.0000000000000000
     2.2536146384748417    3.1206005307619482    0.0000000000000000
     0.0000000000000000    0.0000000000000000    3.9461705597480625
   2   1   1
Direct
  0.5388194229607026  0.1505504480689289  0.5000000000000000
  0.8494495519310711  0.4611805770392974  0.5000000000000000
  0.3945155842825691  0.6054844157174309  0.5000000000000000
  0.0022154408256538  0.9977845591743462  0.0000000000000000
 
  0.00000000E+00  0.00000000E+00  0.00000000E+00
  0.00000000E+00  0.00000000E+00  0.00000000E+00
  0.00000000E+00  0.00000000E+00  0.00000000E+00
  0.00000000E+00  0.00000000E+00  0.00000000E+00
