Al2Co1O4   [FCC,FCC,cF56] (STD_PRIM doi:
   1.22474500000000     
     0.0000000000000000    3.3426789765529912    3.3426789765529912
     3.3426789765529912    0.0000000000000000    3.3426789765529912
     3.3426789765529912    3.3426789765529912    0.0000000000000000
   4   2   8
Direct
  0.5000000000000000  0.5000000000000000  0.5000000000000000
  0.5000000000000000  0.0000000000000000  0.5000000000000000
  0.5000000000000000  0.5000000000000000  0.0000000000000000
  0.0000000000000000  0.5000000000000000  0.5000000000000000
  0.8750000000000000  0.8750000000000000  0.8750000000000000
  0.1250000000000000  0.1250000000000000  0.1250000000000000
  0.7354518139583348  0.7354518139583348  0.7354518139583348
  0.7354518139583348  0.2936445581249814  0.7354518139583348
  0.7354518139583348  0.7354518139583348  0.2936445581249814
  0.2936445581249814  0.7354518139583348  0.7354518139583348
  0.2645481860416652  0.7063554418750186  0.2645481860416652
  0.2645481860416652  0.2645481860416652  0.2645481860416652
  0.2645481860416652  0.2645481860416652  0.7063554418750186
  0.7063554418750186  0.2645481860416652  0.2645481860416652
 
  0.00000000E+00  0.00000000E+00  0.00000000E+00
  0.00000000E+00  0.00000000E+00  0.00000000E+00
  0.00000000E+00  0.00000000E+00  0.00000000E+00
  0.00000000E+00  0.00000000E+00  0.00000000E+00
  0.00000000E+00  0.00000000E+00  0.00000000E+00
  0.00000000E+00  0.00000000E+00  0.00000000E+00
  0.00000000E+00  0.00000000E+00  0.00000000E+00
  0.00000000E+00  0.00000000E+00  0.00000000E+00
  0.00000000E+00  0.00000000E+00  0.00000000E+00
  0.00000000E+00  0.00000000E+00  0.00000000E+00
  0.00000000E+00  0.00000000E+00  0.00000000E+00
  0.00000000E+00  0.00000000E+00  0.00000000E+00
  0.00000000E+00  0.00000000E+00  0.00000000E+00
  0.00000000E+00  0.00000000E+00  0.00000000E+00
