Mn1Pt1   [TET,TET,tP2] (STD_PRIM doi:10.
   1.00000000000000     
     3.0159275298536681    0.0000000000000000   -0.0000000000000000
     0.0000000000000000    3.0159275298536681   -0.0000000000000000
     0.0000000000000000    0.0000000000000000    3.4822370102017524
   1   1
Direct
  0.0000000000000000  0.0000000000000000  0.0000000000000000
  0.5000000000000000  0.5000000000000000  0.5000000000000000
 
  0.00000000E+00  0.00000000E+00  0.00000000E+00
  0.00000000E+00  0.00000000E+00  0.00000000E+00
