Dy1Ge1Ni1   [ORC,ORC,oP12] (STD_PRIM doi
   1.00000000000000     
     4.2165209701405431   -0.0000000000000000    0.0000000000000000
     0.0000000000000000    6.9201922472432491    0.0000000000000000
     0.0000000000000000    0.0000000000000000    7.2739570113258765
   4   4   4
Direct
  0.2500000000000000  0.9931419865680592  0.2941678706989663
  0.7500000000000000  0.5068580134319408  0.7941678706989663
  0.7500000000000000  0.0068580134319409  0.7058321293010337
  0.2500000000000000  0.4931419865680591  0.2058321293010338
  0.2500000000000000  0.3036976458180487  0.5866584133631256
  0.7500000000000000  0.1963023541819513  0.0866584133631257
  0.7500000000000000  0.6963023541819514  0.4133415866368743
  0.2500000000000000  0.8036976458180486  0.9133415866368744
  0.2500000000000000  0.1934871607193573  0.9161367953975706
  0.7500000000000000  0.3065128392806427  0.4161367953975705
  0.7500000000000000  0.8065128392806428  0.0838632046024295
  0.2500000000000000  0.6934871607193572  0.5838632046024294
 
  0.00000000E+00  0.00000000E+00  0.00000000E+00
  0.00000000E+00  0.00000000E+00  0.00000000E+00
  0.00000000E+00  0.00000000E+00  0.00000000E+00
  0.00000000E+00  0.00000000E+00  0.00000000E+00
  0.00000000E+00  0.00000000E+00  0.00000000E+00
  0.00000000E+00  0.00000000E+00  0.00000000E+00
  0.00000000E+00  0.00000000E+00  0.00000000E+00
  0.00000000E+00  0.00000000E+00  0.00000000E+00
  0.00000000E+00  0.00000000E+00  0.00000000E+00
  0.00000000E+00  0.00000000E+00  0.00000000E+00
  0.00000000E+00  0.00000000E+00  0.00000000E+00
  0.00000000E+00  0.00000000E+00  0.00000000E+00
