Ru2Sc1   [HEX,HEX,hP12] (STD_PRIM doi:10
   1.00000000000000     
     2.5950407209113124   -4.4945119347096920    0.0000000000000000
     2.5950407209113124    4.4945119347096920    0.0000000000000000
     0.0000000000000000    0.0000000000000000    8.6425595881196866
   8   4
Direct
 -0.0000000000000000  0.0000000000000000  0.0000000000000000
  0.0000000000000000 -0.0000000000000000  0.5000000000000000
  0.8288309379287153  0.6576737270872002  0.2500000000000000
  0.3423262729127998  0.1711690620712846  0.2500000000000000
  0.8288355952379275  0.1711644047620726  0.2500000000000000
  0.1711690620712846  0.3423262729127998  0.7500000000000000
  0.6576737270872002  0.8288309379287153  0.7500000000000000
  0.1711644047620726  0.8288355952379275  0.7500000000000000
  0.3333283751123288  0.6666716248876713  0.0654675980543387
  0.6666716248876713  0.3333283751123288  0.5654675980543387
  0.6666716248876713  0.3333283751123288  0.9345324019456613
  0.3333283751123288  0.6666716248876713  0.4345324019456613
 
  0.00000000E+00  0.00000000E+00  0.00000000E+00
  0.00000000E+00  0.00000000E+00  0.00000000E+00
  0.00000000E+00  0.00000000E+00  0.00000000E+00
  0.00000000E+00  0.00000000E+00  0.00000000E+00
  0.00000000E+00  0.00000000E+00  0.00000000E+00
  0.00000000E+00  0.00000000E+00  0.00000000E+00
  0.00000000E+00  0.00000000E+00  0.00000000E+00
  0.00000000E+00  0.00000000E+00  0.00000000E+00
  0.00000000E+00  0.00000000E+00  0.00000000E+00
  0.00000000E+00  0.00000000E+00  0.00000000E+00
  0.00000000E+00  0.00000000E+00  0.00000000E+00
  0.00000000E+00  0.00000000E+00  0.00000000E+00
