Ga1S8Ti4   [FCC,FCC,cF52] (STD_PRIM doi:
   1.22474500000000     
     0.0000000000000000    4.1857477221570871    4.1857477221570871
     4.1857477221570871   -0.0000000000000000    4.1857477221570871
     4.1857477221570871    4.1857477221570871   -0.0000000000000000
   1   8   4
Direct
 -0.0000000000000000  0.0000000000000000  0.0000000000000000
  0.8698424072187807  0.3767191975937398  0.3767191975937398
  0.3767191975937398  0.3767191975937398  0.3767191975937398
  0.3767191975937398  0.8698424072187807  0.3767191975937398
  0.3767191975937398  0.3767191975937398  0.8698424072187806
  0.3966886239793425  0.8677704586735479  0.8677704586735479
  0.8677704586735479  0.8677704586735479  0.8677704586735479
  0.8677704586735479  0.3966886239793425  0.8677704586735479
  0.8677704586735479  0.8677704586735479  0.3966886239793425
  0.1563005764730631  0.6145664745089789  0.6145664745089789
  0.6145664745089789  0.6145664745089789  0.6145664745089789
  0.6145664745089789  0.1563005764730631  0.6145664745089789
  0.6145664745089789  0.6145664745089789  0.1563005764730631
 
  0.00000000E+00  0.00000000E+00  0.00000000E+00
  0.00000000E+00  0.00000000E+00  0.00000000E+00
  0.00000000E+00  0.00000000E+00  0.00000000E+00
  0.00000000E+00  0.00000000E+00  0.00000000E+00
  0.00000000E+00  0.00000000E+00  0.00000000E+00
  0.00000000E+00  0.00000000E+00  0.00000000E+00
  0.00000000E+00  0.00000000E+00  0.00000000E+00
  0.00000000E+00  0.00000000E+00  0.00000000E+00
  0.00000000E+00  0.00000000E+00  0.00000000E+00
  0.00000000E+00  0.00000000E+00  0.00000000E+00
  0.00000000E+00  0.00000000E+00  0.00000000E+00
  0.00000000E+00  0.00000000E+00  0.00000000E+00
  0.00000000E+00  0.00000000E+00  0.00000000E+00
