Ru1Sb1V1   [FCC,FCC,cF12] (STD_PRIM doi:
   1.22474500000000     
     0.0000000000000000    2.4698766042449063    2.4698766042449063
     2.4698766042449063    0.0000000000000000    2.4698766042449063
     2.4698766042449063    2.4698766042449063    0.0000000000000000
   1   1   1
Direct
  0.7500000000000000  0.7500000000000000  0.7500000000000000
  0.5000000000000000  0.5000000000000000  0.5000000000000000
  0.0000000000000000  0.0000000000000000  0.0000000000000000
 
  0.00000000E+00  0.00000000E+00  0.00000000E+00
  0.00000000E+00  0.00000000E+00  0.00000000E+00
  0.00000000E+00  0.00000000E+00  0.00000000E+00
