B3H12Y1   [FCC,FCC,cF128] (STD_PRIM doi:
   1.22474500000000     
     0.0000000000000000    4.5045550669589165    4.5045550669589165
     4.5045550669589165    0.0000000000000000    4.5045550669589165
     4.5045550669589165    4.5045550669589165    0.0000000000000000
   6  24   2
Direct
  0.7500000000000000  0.2500000000000000  0.7500000000000000
  0.2500000000000000  0.7500000000000000  0.2500000000000000
  0.2500000000000000  0.2500000000000000  0.7500000000000000
  0.7500000000000000  0.7500000000000000  0.2500000000000000
  0.2500000000000000  0.7500000000000000  0.7500000000000000
  0.7500000000000000  0.2500000000000000  0.2500000000000000
  0.0955728131949911  0.9044271868050089  0.2819158247093583
  0.2819158247093583  0.7180841752906417  0.0955728131949911
  0.7180841752906417  0.2819158247093583  0.9044271868050089
  0.9044271868050089  0.0955728131949911  0.7180841752906417
  0.9044271868050089  0.7180841752906417  0.2819158247093583
  0.7180841752906417  0.9044271868050089  0.0955728131949911
  0.2819158247093583  0.0955728131949911  0.9044271868050089
  0.0955728131949911  0.2819158247093583  0.7180841752906417
  0.7180841752906417  0.0955728131949911  0.2819158247093583
  0.9044271868050089  0.2819158247093583  0.0955728131949911
  0.0955728131949911  0.7180841752906417  0.9044271868050089
  0.2819158247093583  0.9044271868050089  0.7180841752906417
  0.2180841752906417  0.5955728131949911  0.4044271868050089
  0.4044271868050089  0.7819158247093583  0.2180841752906417
  0.5955728131949911  0.2180841752906417  0.7819158247093583
  0.7819158247093583  0.4044271868050089  0.5955728131949911
  0.2180841752906417  0.7819158247093583  0.5955728131949911
  0.4044271868050089  0.5955728131949911  0.7819158247093583
  0.5955728131949911  0.4044271868050089  0.2180841752906417
  0.7819158247093583  0.2180841752906417  0.4044271868050089
  0.2180841752906417  0.4044271868050089  0.7819158247093583
  0.4044271868050089  0.2180841752906417  0.5955728131949911
  0.5955728131949911  0.7819158247093583  0.4044271868050089
  0.7819158247093583  0.5955728131949911  0.2180841752906417
  0.0000000000000000  0.0000000000000000  0.0000000000000000
  0.5000000000000000  0.5000000000000000  0.5000000000000000
 
  0.00000000E+00  0.00000000E+00  0.00000000E+00
  0.00000000E+00  0.00000000E+00  0.00000000E+00
  0.00000000E+00  0.00000000E+00  0.00000000E+00
  0.00000000E+00  0.00000000E+00  0.00000000E+00
  0.00000000E+00  0.00000000E+00  0.00000000E+00
  0.00000000E+00  0.00000000E+00  0.00000000E+00
  0.00000000E+00  0.00000000E+00  0.00000000E+00
  0.00000000E+00  0.00000000E+00  0.00000000E+00
  0.00000000E+00  0.00000000E+00  0.00000000E+00
  0.00000000E+00  0.00000000E+00  0.00000000E+00
  0.00000000E+00  0.00000000E+00  0.00000000E+00
  0.00000000E+00  0.00000000E+00  0.00000000E+00
  0.00000000E+00  0.00000000E+00  0.00000000E+00
  0.00000000E+00  0.00000000E+00  0.00000000E+00
  0.00000000E+00  0.00000000E+00  0.00000000E+00
  0.00000000E+00  0.00000000E+00  0.00000000E+00
  0.00000000E+00  0.00000000E+00  0.00000000E+00
  0.00000000E+00  0.00000000E+00  0.00000000E+00
  0.00000000E+00  0.00000000E+00  0.00000000E+00
  0.00000000E+00  0.00000000E+00  0.00000000E+00
  0.00000000E+00  0.00000000E+00  0.00000000E+00
  0.00000000E+00  0.00000000E+00  0.00000000E+00
  0.00000000E+00  0.00000000E+00  0.00000000E+00
  0.00000000E+00  0.00000000E+00  0.00000000E+00
  0.00000000E+00  0.00000000E+00  0.00000000E+00
  0.00000000E+00  0.00000000E+00  0.00000000E+00
  0.00000000E+00  0.00000000E+00  0.00000000E+00
  0.00000000E+00  0.00000000E+00  0.00000000E+00
  0.00000000E+00  0.00000000E+00  0.00000000E+00
  0.00000000E+00  0.00000000E+00  0.00000000E+00
  0.00000000E+00  0.00000000E+00  0.00000000E+00
  0.00000000E+00  0.00000000E+00  0.00000000E+00
