Cl4Hg3O1   [CUB,CUB,cP32] (STD_PRIM doi:
   1.00000000000000     
     9.5557697069130363   -0.0000000000000000    0.0000000000000000
     0.0000000000000000    9.5557697069130363   -0.0000000000000000
    -0.0000000000000000    0.0000000000000000    9.5557697069130363
  16  12   4
Direct
  0.1929143560858159  0.5301976098954116  0.3419306150689945
  0.3070856439141841  0.4698023901045883  0.8419306150689945
  0.8070856439141841  0.0301976098954117  0.1580693849310056
  0.6929143560858159  0.9698023901045884  0.6580693849310055
  0.3419306150689945  0.1929143560858159  0.5301976098954116
  0.8419306150689945  0.3070856439141841  0.4698023901045883
  0.1580693849310056  0.8070856439141841  0.0301976098954117
  0.6580693849310055  0.6929143560858159  0.9698023901045884
  0.5301976098954116  0.3419306150689945  0.1929143560858159
  0.4698023901045883  0.8419306150689945  0.3070856439141841
  0.0301976098954117  0.1580693849310056  0.8070856439141841
  0.9698023901045884  0.6580693849310055  0.6929143560858159
  0.5710184848335875  0.5710184848335875  0.5710184848335875
  0.9289815151664125  0.4289815151664125  0.0710184848335875
  0.4289815151664125  0.0710184848335875  0.9289815151664125
  0.0710184848335875  0.9289815151664125  0.4289815151664125
  0.0170245368947781  0.2325373183149364  0.3163409730567696
  0.4829754631052219  0.7674626816850636  0.8163409730567697
  0.9829754631052219  0.7325373183149364  0.1836590269432304
  0.5170245368947781  0.2674626816850636  0.6836590269432303
  0.3163409730567696  0.0170245368947781  0.2325373183149364
  0.8163409730567697  0.4829754631052219  0.7674626816850636
  0.1836590269432304  0.9829754631052219  0.7325373183149364
  0.6836590269432303  0.5170245368947781  0.2674626816850636
  0.2325373183149364  0.3163409730567696  0.0170245368947781
  0.7674626816850636  0.8163409730567697  0.4829754631052219
  0.7325373183149364  0.1836590269432304  0.9829754631052219
  0.2674626816850636  0.6836590269432303  0.5170245368947781
  0.1763995448512323  0.1763995448512323  0.1763995448512323
  0.3236004551487677  0.8236004551487678  0.6763995448512322
  0.8236004551487678  0.6763995448512322  0.3236004551487677
  0.6763995448512322  0.3236004551487677  0.8236004551487678
 
  0.00000000E+00  0.00000000E+00  0.00000000E+00
  0.00000000E+00  0.00000000E+00  0.00000000E+00
  0.00000000E+00  0.00000000E+00  0.00000000E+00
  0.00000000E+00  0.00000000E+00  0.00000000E+00
  0.00000000E+00  0.00000000E+00  0.00000000E+00
  0.00000000E+00  0.00000000E+00  0.00000000E+00
  0.00000000E+00  0.00000000E+00  0.00000000E+00
  0.00000000E+00  0.00000000E+00  0.00000000E+00
  0.00000000E+00  0.00000000E+00  0.00000000E+00
  0.00000000E+00  0.00000000E+00  0.00000000E+00
  0.00000000E+00  0.00000000E+00  0.00000000E+00
  0.00000000E+00  0.00000000E+00  0.00000000E+00
  0.00000000E+00  0.00000000E+00  0.00000000E+00
  0.00000000E+00  0.00000000E+00  0.00000000E+00
  0.00000000E+00  0.00000000E+00  0.00000000E+00
  0.00000000E+00  0.00000000E+00  0.00000000E+00
  0.00000000E+00  0.00000000E+00  0.00000000E+00
  0.00000000E+00  0.00000000E+00  0.00000000E+00
  0.00000000E+00  0.00000000E+00  0.00000000E+00
  0.00000000E+00  0.00000000E+00  0.00000000E+00
  0.00000000E+00  0.00000000E+00  0.00000000E+00
  0.00000000E+00  0.00000000E+00  0.00000000E+00
  0.00000000E+00  0.00000000E+00  0.00000000E+00
  0.00000000E+00  0.00000000E+00  0.00000000E+00
  0.00000000E+00  0.00000000E+00  0.00000000E+00
  0.00000000E+00  0.00000000E+00  0.00000000E+00
  0.00000000E+00  0.00000000E+00  0.00000000E+00
  0.00000000E+00  0.00000000E+00  0.00000000E+00
  0.00000000E+00  0.00000000E+00  0.00000000E+00
  0.00000000E+00  0.00000000E+00  0.00000000E+00
  0.00000000E+00  0.00000000E+00  0.00000000E+00
  0.00000000E+00  0.00000000E+00  0.00000000E+00
