K1Sb1Zn1   [HEX,HEX,hP6] (STD_PRIM doi:1
   1.00000000000000     
     2.2831702410545551   -3.9546662506020045    0.0000000000000000
     2.2831702410545551    3.9546662506020045    0.0000000000000000
     0.0000000000000000    0.0000000000000000   10.6453828518564961
   2   2   2
Direct
  0.0000000000000000  0.0000000000000000  0.0000000000000000
  0.0000000000000000  0.0000000000000000  0.5000000000000000
  0.3333301988787341  0.6666698011212659  0.2500000000000000
  0.6666698011212659  0.3333301988787341  0.7500000000000000
  0.3333418861545638  0.6666581138454362  0.7500000000000000
  0.6666581138454362  0.3333418861545638  0.2500000000000000
 
  0.00000000E+00  0.00000000E+00  0.00000000E+00
  0.00000000E+00  0.00000000E+00  0.00000000E+00
  0.00000000E+00  0.00000000E+00  0.00000000E+00
  0.00000000E+00  0.00000000E+00  0.00000000E+00
  0.00000000E+00  0.00000000E+00  0.00000000E+00
  0.00000000E+00  0.00000000E+00  0.00000000E+00
