Ru2Tb1   [HEX,HEX,hP12] (STD_PRIM doi:10
   1.00000000000000     
     2.6407489046261534   -4.5745410433539515    0.0000000000000000
     2.6407489046261534    4.5745410433539515   -0.0000000000000000
     0.0000000000000000    0.0000000000000000    9.0103746490138192
   8   4
Direct
  0.0000000000000000  0.0000000000000000  0.0000000000000000
  0.0000000000000000  0.0000000000000000  0.5000000000000000
  0.8316447166644173  0.6633077247681927  0.2500000000000000
  0.3366922752318073  0.1683552833355828  0.2500000000000000
  0.8316502632550463  0.1683497367449537  0.2500000000000000
  0.1683552833355828  0.3366922752318073  0.7500000000000000
  0.6633077247681927  0.8316447166644173  0.7500000000000000
  0.1683497367449537  0.8316502632550463  0.7500000000000000
  0.3333390106678082  0.6666609893321919  0.0650794607380765
  0.6666609893321919  0.3333390106678082  0.5650794607380765
  0.6666609893321919  0.3333390106678082  0.9349205392619235
  0.3333390106678082  0.6666609893321919  0.4349205392619235
 
  0.00000000E+00  0.00000000E+00  0.00000000E+00
  0.00000000E+00  0.00000000E+00  0.00000000E+00
  0.00000000E+00  0.00000000E+00  0.00000000E+00
  0.00000000E+00  0.00000000E+00  0.00000000E+00
  0.00000000E+00  0.00000000E+00  0.00000000E+00
  0.00000000E+00  0.00000000E+00  0.00000000E+00
  0.00000000E+00  0.00000000E+00  0.00000000E+00
  0.00000000E+00  0.00000000E+00  0.00000000E+00
  0.00000000E+00  0.00000000E+00  0.00000000E+00
  0.00000000E+00  0.00000000E+00  0.00000000E+00
  0.00000000E+00  0.00000000E+00  0.00000000E+00
  0.00000000E+00  0.00000000E+00  0.00000000E+00
