Ge1S2   [BCT,BCT2,tI12] (STD_PRIM doi:10
   1.00000000000000     
    -2.8783928148196645    2.8783928148196645    4.5411875252488052
     2.8783928148196645   -2.8783928148196645    4.5411875252488052
     2.8783928148196645    2.8783928148196645   -4.5411875252488052
   2   4
Direct
  0.0000000000000000  0.0000000000000000  0.0000000000000000
  0.7500000000000000  0.2500000000000000  0.5000000000000000
  0.6480270936778701  0.6250000000000000  0.5230270936778701
  0.1019729063221299  0.1250000000000000  0.4769729063221299
  0.8750000000000000  0.3519729063221299  0.9769729063221299
  0.3750000000000000  0.8980270936778701  0.0230270936778701
 
  0.00000000E+00  0.00000000E+00  0.00000000E+00
  0.00000000E+00  0.00000000E+00  0.00000000E+00
  0.00000000E+00  0.00000000E+00  0.00000000E+00
  0.00000000E+00  0.00000000E+00  0.00000000E+00
  0.00000000E+00  0.00000000E+00  0.00000000E+00
  0.00000000E+00  0.00000000E+00  0.00000000E+00
