N2Sr2Zn1   [BCT,BCT2,tI10] (STD_PRIM doi
   1.00000000000000     
    -1.9356378163741759    1.9356378163741759    6.4037857938052660
     1.9356378163741759   -1.9356378163741759    6.4037857938052660
     1.9356378163741759    1.9356378163741759   -6.4037857938052660
   2   2   1
Direct
  0.8588981371269777  0.8588981371269777  0.0000000000000000
  0.1411018628730223  0.1411018628730223 -0.0000000000000000
  0.6582997085288235  0.6582997085288235  0.0000000000000000
  0.3417002914711765  0.3417002914711765 -0.0000000000000000
  0.0000000000000000 -0.0000000000000000  0.0000000000000000
 
  0.00000000E+00  0.00000000E+00  0.00000000E+00
  0.00000000E+00  0.00000000E+00  0.00000000E+00
  0.00000000E+00  0.00000000E+00  0.00000000E+00
  0.00000000E+00  0.00000000E+00  0.00000000E+00
  0.00000000E+00  0.00000000E+00  0.00000000E+00
