Os2Y1   [HEX,HEX,hP12] (STD_PRIM doi:10.
   1.00000000000000     
     2.6395085975611119   -4.5717629979907199    0.0000000000000000
     2.6394268895769195    4.5717158238640492    0.0000000000000000
     0.0000000000000000    0.0000000000000000    8.9903230847892672
   8   4
Direct
  0.0000000000000000 -0.0000000000000000  0.0000000000000000
  0.0000000000000000 -0.0000000000000000  0.5000000000000000
  0.6588436533941717  0.8294332368609063  0.2500000000000000
  0.1705895834667345  0.8294332368609063  0.2500000000000000
  0.1705759436010439  0.3411518872020807  0.2500000000000000
  0.3411563466058282  0.1705667631390937  0.7500000000000000
  0.8294104165332654  0.1705667631390937  0.7500000000000000
  0.8294240563989561  0.6588481127979194  0.7500000000000000
  0.6666693379827995  0.3333386759656061  0.0657892986215487
  0.3333306620172005  0.6666613240343939  0.5657892986215487
  0.3333306620172005  0.6666613240343939  0.9342107013784513
  0.6666693379827995  0.3333386759656061  0.4342107013784513
 
  0.00000000E+00  0.00000000E+00  0.00000000E+00
  0.00000000E+00  0.00000000E+00  0.00000000E+00
  0.00000000E+00  0.00000000E+00  0.00000000E+00
  0.00000000E+00  0.00000000E+00  0.00000000E+00
  0.00000000E+00  0.00000000E+00  0.00000000E+00
  0.00000000E+00  0.00000000E+00  0.00000000E+00
  0.00000000E+00  0.00000000E+00  0.00000000E+00
  0.00000000E+00  0.00000000E+00  0.00000000E+00
  0.00000000E+00  0.00000000E+00  0.00000000E+00
  0.00000000E+00  0.00000000E+00  0.00000000E+00
  0.00000000E+00  0.00000000E+00  0.00000000E+00
  0.00000000E+00  0.00000000E+00  0.00000000E+00
