C1   [BCT,BCT1,tI8] (STD_PRIM doi:10.101
   1.00000000000000     
    -2.1899129974530007    2.1899129974530007    1.2555646663927360
     2.1899129974530007   -2.1899129974530007    1.2555646663927360
     2.1899129974530007    2.1899129974530007   -1.2555646663927360
   4
Direct
  0.1802362727303614  0.8197637272696386  0.0000000000000000
  0.8197637272696386  0.1802362727303614  0.0000000000000000
  0.1802362727303614  0.1802362727303614  0.3604725454607156
  0.8197637272696386  0.8197637272696386  0.6395274545392844
 
  0.00000000E+00  0.00000000E+00  0.00000000E+00
  0.00000000E+00  0.00000000E+00  0.00000000E+00
  0.00000000E+00  0.00000000E+00  0.00000000E+00
  0.00000000E+00  0.00000000E+00  0.00000000E+00
