Ca3Ge13Ir4   [CUB,CUB,cP40] (STD_PRIM do
   1.00000000000000     
     9.0688054642493849    0.0000000000000000    0.0000000000000000
     0.0000000000000000    9.0688054642493849    0.0000000000000000
    -0.0000000000000000   -0.0000000000000000    9.0688054642493849
   6  26   8
Direct
  0.2500000000000000  0.0000000000000000  0.5000000000000000
  0.7500000000000000 -0.0000000000000000  0.5000000000000000
  0.5000000000000000  0.2500000000000000 -0.0000000000000000
  0.5000000000000000  0.7500000000000000  0.0000000000000000
  0.0000000000000000  0.5000000000000000  0.2500000000000000
 -0.0000000000000000  0.5000000000000000  0.7500000000000000
  0.0000000000000000  0.0000000000000000  0.0000000000000000
  0.5000000000000000  0.5000000000000000  0.5000000000000000
  0.0000000000000000  0.1444724527204698  0.2991059117137347
 -0.0000000000000000  0.8555275472795302  0.2991059117137347
  0.0000000000000000  0.1444724527204698  0.7008940882862653
 -0.0000000000000000  0.8555275472795302  0.7008940882862653
  0.2991059117137347 -0.0000000000000000  0.1444724527204698
  0.2991059117137347  0.0000000000000000  0.8555275472795302
  0.7008940882862653 -0.0000000000000000  0.1444724527204698
  0.7008940882862653  0.0000000000000000  0.8555275472795302
  0.1444724527204698  0.2991059117137347 -0.0000000000000000
  0.8555275472795302  0.2991059117137347  0.0000000000000000
  0.1444724527204698  0.7008940882862653 -0.0000000000000000
  0.8555275472795302  0.7008940882862653  0.0000000000000000
  0.6444724527204698  0.5000000000000000  0.2008940882862653
  0.3555275472795302  0.5000000000000000  0.2008940882862653
  0.6444724527204698  0.5000000000000000  0.7991059117137347
  0.3555275472795302  0.5000000000000000  0.7991059117137347
  0.5000000000000000  0.7991059117137347  0.3555275472795302
  0.5000000000000000  0.7991059117137347  0.6444724527204698
  0.5000000000000000  0.2008940882862653  0.3555275472795302
  0.5000000000000000  0.2008940882862653  0.6444724527204698
  0.7991059117137347  0.6444724527204698  0.5000000000000000
  0.7991059117137347  0.3555275472795302  0.5000000000000000
  0.2008940882862653  0.6444724527204698  0.5000000000000000
  0.2008940882862653  0.3555275472795302  0.5000000000000000
  0.2500000000000000  0.2500000000000000  0.2500000000000000
  0.7500000000000000  0.7500000000000000  0.2500000000000000
  0.7500000000000000  0.2500000000000000  0.7500000000000000
  0.2500000000000000  0.7500000000000000  0.7500000000000000
  0.7500000000000000  0.7500000000000000  0.7500000000000000
  0.2500000000000000  0.2500000000000000  0.7500000000000000
  0.2500000000000000  0.7500000000000000  0.2500000000000000
  0.7500000000000000  0.2500000000000000  0.2500000000000000
 
  0.00000000E+00  0.00000000E+00  0.00000000E+00
  0.00000000E+00  0.00000000E+00  0.00000000E+00
  0.00000000E+00  0.00000000E+00  0.00000000E+00
  0.00000000E+00  0.00000000E+00  0.00000000E+00
  0.00000000E+00  0.00000000E+00  0.00000000E+00
  0.00000000E+00  0.00000000E+00  0.00000000E+00
  0.00000000E+00  0.00000000E+00  0.00000000E+00
  0.00000000E+00  0.00000000E+00  0.00000000E+00
  0.00000000E+00  0.00000000E+00  0.00000000E+00
  0.00000000E+00  0.00000000E+00  0.00000000E+00
  0.00000000E+00  0.00000000E+00  0.00000000E+00
  0.00000000E+00  0.00000000E+00  0.00000000E+00
  0.00000000E+00  0.00000000E+00  0.00000000E+00
  0.00000000E+00  0.00000000E+00  0.00000000E+00
  0.00000000E+00  0.00000000E+00  0.00000000E+00
  0.00000000E+00  0.00000000E+00  0.00000000E+00
  0.00000000E+00  0.00000000E+00  0.00000000E+00
  0.00000000E+00  0.00000000E+00  0.00000000E+00
  0.00000000E+00  0.00000000E+00  0.00000000E+00
  0.00000000E+00  0.00000000E+00  0.00000000E+00
  0.00000000E+00  0.00000000E+00  0.00000000E+00
  0.00000000E+00  0.00000000E+00  0.00000000E+00
  0.00000000E+00  0.00000000E+00  0.00000000E+00
  0.00000000E+00  0.00000000E+00  0.00000000E+00
  0.00000000E+00  0.00000000E+00  0.00000000E+00
  0.00000000E+00  0.00000000E+00  0.00000000E+00
  0.00000000E+00  0.00000000E+00  0.00000000E+00
  0.00000000E+00  0.00000000E+00  0.00000000E+00
  0.00000000E+00  0.00000000E+00  0.00000000E+00
  0.00000000E+00  0.00000000E+00  0.00000000E+00
  0.00000000E+00  0.00000000E+00  0.00000000E+00
  0.00000000E+00  0.00000000E+00  0.00000000E+00
  0.00000000E+00  0.00000000E+00  0.00000000E+00
  0.00000000E+00  0.00000000E+00  0.00000000E+00
  0.00000000E+00  0.00000000E+00  0.00000000E+00
  0.00000000E+00  0.00000000E+00  0.00000000E+00
  0.00000000E+00  0.00000000E+00  0.00000000E+00
  0.00000000E+00  0.00000000E+00  0.00000000E+00
  0.00000000E+00  0.00000000E+00  0.00000000E+00
  0.00000000E+00  0.00000000E+00  0.00000000E+00
