S3Y2   [ORC,ORC,oP20] (STD_PRIM doi:10.1
   1.00000000000000     
     3.8810285552402859    0.0000000000000000    0.0000000000000000
     0.0000000000000000   10.5069163592369357    0.0000000000000000
     0.0000000000000000    0.0000000000000000   10.6785911937894813
  12   8
Direct
  0.7500000000000000  0.1265072158978230  0.0458681332798686
  0.2500000000000000  0.6265072158978231  0.4541318667201314
  0.2500000000000000  0.8734927841021769  0.9541318667201314
  0.7500000000000000  0.3734927841021770  0.5458681332798686
  0.2500000000000000  0.5549386915553353  0.1192418640761850
  0.7500000000000000  0.0549386915553352  0.3807581359238079
  0.7500000000000000  0.4450613084446648  0.8807581359238149
  0.2500000000000000  0.9450613084446647  0.6192418640761851
  0.7500000000000000  0.8040457783656008  0.2277441170916774
  0.2500000000000000  0.3040457783656007  0.2722558829083226
  0.2500000000000000  0.1959542216343993  0.7722558829083226
  0.7500000000000000  0.6959542216343992  0.7277441170916774
  0.7500000000000000  0.6871948436561562  0.9902319405443867
  0.2500000000000000  0.1871948436561563  0.5097680594556133
  0.2500000000000000  0.3128051563438436  0.0097680594556132
  0.7500000000000000  0.8128051563438438  0.4902319405443867
  0.2500000000000000  0.9957648079574241  0.1921480370701064
  0.7500000000000000  0.4957648079574241  0.3078519629298936
  0.7500000000000000  0.0042351920425759  0.8078519629298937
  0.2500000000000000  0.5042351920425759  0.6921480370701063
 
  0.00000000E+00  0.00000000E+00  0.00000000E+00
  0.00000000E+00  0.00000000E+00  0.00000000E+00
  0.00000000E+00  0.00000000E+00  0.00000000E+00
  0.00000000E+00  0.00000000E+00  0.00000000E+00
  0.00000000E+00  0.00000000E+00  0.00000000E+00
  0.00000000E+00  0.00000000E+00  0.00000000E+00
  0.00000000E+00  0.00000000E+00  0.00000000E+00
  0.00000000E+00  0.00000000E+00  0.00000000E+00
  0.00000000E+00  0.00000000E+00  0.00000000E+00
  0.00000000E+00  0.00000000E+00  0.00000000E+00
  0.00000000E+00  0.00000000E+00  0.00000000E+00
  0.00000000E+00  0.00000000E+00  0.00000000E+00
  0.00000000E+00  0.00000000E+00  0.00000000E+00
  0.00000000E+00  0.00000000E+00  0.00000000E+00
  0.00000000E+00  0.00000000E+00  0.00000000E+00
  0.00000000E+00  0.00000000E+00  0.00000000E+00
  0.00000000E+00  0.00000000E+00  0.00000000E+00
  0.00000000E+00  0.00000000E+00  0.00000000E+00
  0.00000000E+00  0.00000000E+00  0.00000000E+00
  0.00000000E+00  0.00000000E+00  0.00000000E+00
