Au1La1 #62 - (Au1La1_ICSD_612101) - Au1L
   1.00000000000000     
     4.9297158840332882    0.0000000000000000    0.0000000000000000
     0.0000000000000000    5.9991971048630024    0.0000000000000000
     0.0000000000000000    0.0000000000000000    7.6382704477485195
   4   4
Direct
  0.7500000000000000  0.3538630197022208  0.0407271880508108
  0.2500000000000000  0.8538630197022207  0.4592728119491892
  0.2500000000000000  0.6461369802977793  0.9592728119491891
  0.7500000000000000  0.1461369802977792  0.5407271880508109
  0.7500000000000000  0.8588706462625583  0.1832603935907928
  0.2500000000000000  0.3588706462625585  0.3167396064092073
  0.2500000000000000  0.1411293537374416  0.8167396064092072
  0.7500000000000000  0.6411293537374417  0.6832603935907928
 
  0.00000000E+00  0.00000000E+00  0.00000000E+00
  0.00000000E+00  0.00000000E+00  0.00000000E+00
  0.00000000E+00  0.00000000E+00  0.00000000E+00
  0.00000000E+00  0.00000000E+00  0.00000000E+00
  0.00000000E+00  0.00000000E+00  0.00000000E+00
  0.00000000E+00  0.00000000E+00  0.00000000E+00
  0.00000000E+00  0.00000000E+00  0.00000000E+00
  0.00000000E+00  0.00000000E+00  0.00000000E+00
