Cu1Hf5Sn3   [HEX,HEX,hP18] (STD_PRIM doi
   1.00000000000000     
     4.3109076883637805   -7.4667111429853712    0.0000000000000000
     4.3108633286124967    7.4666855318710263   -0.0000000000000000
     0.0000000000000000    0.0000000000000000    5.8448240243228957
   2  10   6
Direct
 -0.0000000000000000  0.0000000000000000  0.0000000000000000
  0.0000000000000000 -0.0000000000000000  0.5000000000000000
  0.6666684525933312  0.3333369051866624  0.0000000000000000
  0.3333315474066688  0.6666630948133376  0.5000000000000000
  0.3333315474066688  0.6666630948133376 -0.0000000000000000
  0.6666684525933312  0.3333369051866624  0.5000000000000000
  0.0000031215778682  0.7371033404847670  0.2500000000000000
  0.2628997810930941  0.2628966595152330  0.2500000000000000
  0.7371020031068474  0.0000000000000000  0.2500000000000000
  0.9999968784221318  0.2628966595152330  0.7500000000000000
  0.7371002189069059  0.7371033404847670  0.7500000000000000
  0.2628979968931526  0.0000000000000000  0.7500000000000000
  0.9999993963886964  0.3859703900925317  0.2500000000000000
  0.6140290062961646  0.6140296099074684  0.2500000000000000
  0.3859760713741024  0.0000000000000000  0.2500000000000000
  0.0000006036113037  0.6140296099074684  0.7500000000000000
  0.3859709937038353  0.3859703900925317  0.7500000000000000
  0.6140239286258976  0.0000000000000000  0.7500000000000000
 
  0.00000000E+00  0.00000000E+00  0.00000000E+00
  0.00000000E+00  0.00000000E+00  0.00000000E+00
  0.00000000E+00  0.00000000E+00  0.00000000E+00
  0.00000000E+00  0.00000000E+00  0.00000000E+00
  0.00000000E+00  0.00000000E+00  0.00000000E+00
  0.00000000E+00  0.00000000E+00  0.00000000E+00
  0.00000000E+00  0.00000000E+00  0.00000000E+00
  0.00000000E+00  0.00000000E+00  0.00000000E+00
  0.00000000E+00  0.00000000E+00  0.00000000E+00
  0.00000000E+00  0.00000000E+00  0.00000000E+00
  0.00000000E+00  0.00000000E+00  0.00000000E+00
  0.00000000E+00  0.00000000E+00  0.00000000E+00
  0.00000000E+00  0.00000000E+00  0.00000000E+00
  0.00000000E+00  0.00000000E+00  0.00000000E+00
  0.00000000E+00  0.00000000E+00  0.00000000E+00
  0.00000000E+00  0.00000000E+00  0.00000000E+00
  0.00000000E+00  0.00000000E+00  0.00000000E+00
  0.00000000E+00  0.00000000E+00  0.00000000E+00
