Na3P1   [HEX,HEX,hP8] (STD_PRIM doi:10.1
   1.00000000000000     
     2.4670764695932332   -4.2734404221969209    0.0000000000000000
     2.4670764695932332    4.2734404221969209    0.0000000000000000
     0.0000000000000000    0.0000000000000000    8.7837690414573046
   6   2
Direct
  0.9999969256078529  0.0000030743921471  0.2500000000000000
  0.0000030743921471  0.9999969256078529  0.7500000000000000
  0.3333063782609216  0.6666936217390784  0.5802558868447534
  0.6666936217390784  0.3333063782609216  0.0802558868447534
  0.6666936217390784  0.3333063782609216  0.4197441131552466
  0.3333063782609216  0.6666936217390784  0.9197441131552466
  0.3333092026578299  0.6666907973421701  0.2500000000000000
  0.6666907973421701  0.3333092026578299  0.7500000000000000
 
  0.00000000E+00  0.00000000E+00  0.00000000E+00
  0.00000000E+00  0.00000000E+00  0.00000000E+00
  0.00000000E+00  0.00000000E+00  0.00000000E+00
  0.00000000E+00  0.00000000E+00  0.00000000E+00
  0.00000000E+00  0.00000000E+00  0.00000000E+00
  0.00000000E+00  0.00000000E+00  0.00000000E+00
  0.00000000E+00  0.00000000E+00  0.00000000E+00
  0.00000000E+00  0.00000000E+00  0.00000000E+00
