Ag1O2Sc1   [HEX,HEX,hP8] (STD_PRIM doi:1
   1.00000000000000     
     1.6421331563163017   -2.8442580595332823   -0.0000000000000000
     1.6421988474758276    2.8442959863419182   -0.0000000000000000
     0.0000000000000000    0.0000000000000000   12.6297642264065235
   2   4   2
Direct
  0.6666968589115025  0.3333937178229980  0.2500000000000000
  0.3333031410884975  0.6666062821770020  0.7500000000000000
  0.6666818029781358  0.3333636059562786  0.0822717979250760
  0.3333181970218643  0.6666363940437214  0.5822717979250760
  0.3333181970218643  0.6666363940437214  0.9177282020749240
  0.6666818029781358  0.3333636059562786  0.4177282020749241
 -0.0000000000000000 -0.0000000000000000 -0.0000000000000000
  0.0000000000000000  0.0000000000000000  0.5000000000000000
 
  0.00000000E+00  0.00000000E+00  0.00000000E+00
  0.00000000E+00  0.00000000E+00  0.00000000E+00
  0.00000000E+00  0.00000000E+00  0.00000000E+00
  0.00000000E+00  0.00000000E+00  0.00000000E+00
  0.00000000E+00  0.00000000E+00  0.00000000E+00
  0.00000000E+00  0.00000000E+00  0.00000000E+00
  0.00000000E+00  0.00000000E+00  0.00000000E+00
  0.00000000E+00  0.00000000E+00  0.00000000E+00
