F1Ho1S1   [TET,TET,tP6] (STD_PRIM doi:10
   1.00000000000000     
     3.7647287964729186    0.0000000000000000   -0.0000000000000000
     0.0000000000000000    3.7647287964729186    0.0000000000000000
     0.0000000000000000    0.0000000000000000    6.8320534770299837
   2   2   2
Direct
  0.7500000000000000  0.2500000000000000  0.0000000000000000
  0.2500000000000000  0.7500000000000000  0.0000000000000000
  0.2500000000000000  0.2500000000000000  0.2283946329310040
  0.7500000000000000  0.7500000000000000  0.7716053670689961
  0.2500000000000000  0.2500000000000000  0.6437163733214891
  0.7500000000000000  0.7500000000000000  0.3562836266785180
 
  0.00000000E+00  0.00000000E+00  0.00000000E+00
  0.00000000E+00  0.00000000E+00  0.00000000E+00
  0.00000000E+00  0.00000000E+00  0.00000000E+00
  0.00000000E+00  0.00000000E+00  0.00000000E+00
  0.00000000E+00  0.00000000E+00  0.00000000E+00
  0.00000000E+00  0.00000000E+00  0.00000000E+00
