Ge1Ir1Mn3   [CUB,CUB,cP20] (STD_PRIM doi
   1.00000000000000     
     6.8673891949194728   -0.0000000000000000    0.0000000000000000
     0.0000000000000000    6.8673891949194728   -0.0000000000000000
     0.0000000000000000   -0.0000000000000000    6.8673891949194728
   4   4  12
Direct
  0.0648164800429820  0.0648164800429820  0.0648164800429820
  0.4351835199570180  0.9351835199570180  0.5648164800429820
  0.9351835199570180  0.5648164800429820  0.4351835199570180
  0.5648164800429820  0.4351835199570180  0.9351835199570180
  0.6798560467659678  0.6798560467659678  0.6798560467659678
  0.8201439532340322  0.3201439532340322  0.1798560467659678
  0.3201439532340322  0.1798560467659678  0.8201439532340322
  0.1798560467659678  0.8201439532340322  0.3201439532340322
  0.1214879979904539  0.2034724477538515  0.4571944095110390
  0.3785120020095461  0.7965275522461486  0.9571944095110391
  0.8785120020095462  0.7034724477538514  0.0428055904889610
  0.6214879979904538  0.2965275522461485  0.5428055904889609
  0.4571944095110390  0.1214879979904539  0.2034724477538515
  0.9571944095110391  0.3785120020095461  0.7965275522461486
  0.0428055904889610  0.8785120020095462  0.7034724477538514
  0.5428055904889609  0.6214879979904538  0.2965275522461485
  0.2034724477538515  0.4571944095110390  0.1214879979904539
  0.7965275522461486  0.9571944095110391  0.3785120020095461
  0.7034724477538514  0.0428055904889610  0.8785120020095462
  0.2965275522461485  0.5428055904889609  0.6214879979904538
 
  0.00000000E+00  0.00000000E+00  0.00000000E+00
  0.00000000E+00  0.00000000E+00  0.00000000E+00
  0.00000000E+00  0.00000000E+00  0.00000000E+00
  0.00000000E+00  0.00000000E+00  0.00000000E+00
  0.00000000E+00  0.00000000E+00  0.00000000E+00
  0.00000000E+00  0.00000000E+00  0.00000000E+00
  0.00000000E+00  0.00000000E+00  0.00000000E+00
  0.00000000E+00  0.00000000E+00  0.00000000E+00
  0.00000000E+00  0.00000000E+00  0.00000000E+00
  0.00000000E+00  0.00000000E+00  0.00000000E+00
  0.00000000E+00  0.00000000E+00  0.00000000E+00
  0.00000000E+00  0.00000000E+00  0.00000000E+00
  0.00000000E+00  0.00000000E+00  0.00000000E+00
  0.00000000E+00  0.00000000E+00  0.00000000E+00
  0.00000000E+00  0.00000000E+00  0.00000000E+00
  0.00000000E+00  0.00000000E+00  0.00000000E+00
  0.00000000E+00  0.00000000E+00  0.00000000E+00
  0.00000000E+00  0.00000000E+00  0.00000000E+00
  0.00000000E+00  0.00000000E+00  0.00000000E+00
  0.00000000E+00  0.00000000E+00  0.00000000E+00
