P7Pd9Zr5   [ORCC,ORCC,oS42] (STD_PRIM do
   1.00000000000000     
     3.2722577976460197  -13.2841065732478700    0.0000000000000000
     3.2722577976460197   13.2841065732478700    0.0000000000000000
     0.0000000000000000    0.0000000000000000    3.8191240760547611
   7   9   5
Direct
  0.8784074536071652  0.8784074536071652  0.0000000000000000
  0.1775535115117216  0.6070108526965131  0.0000000000000000
  0.6070108526965131  0.1775535115117216  0.0000000000000000
  0.3111129642183888  0.4482232479089410  0.5000000000000000
  0.4482232479089410  0.3111129642183888  0.5000000000000000
  0.7412542894923922  0.0288555042924770  0.5000000000000000
  0.0288555042924770  0.7412542894923922  0.5000000000000000
  0.6880015974608830  0.8042872570262503  0.5000000000000000
  0.8042872570262503  0.6880015974608830  0.5000000000000000
  0.1374238817195365  0.4548234632683723  0.5000000000000000
  0.4548234632683723  0.1374238817195365  0.5000000000000000
  0.8116267108666186  0.2038820524092305  0.0000000000000000
  0.2038820524092305  0.8116267108666186  0.0000000000000000
  0.1238759384997860  0.1238759384997860  0.5000000000000000
  0.4952649735829409  0.7705494605691215  0.0000000000000000
  0.7705494605691215  0.4952649735829409  0.0000000000000000
  0.0052313685613748  0.1826069491606116  0.0000000000000000
  0.1826069491606116  0.0052313685613748  0.0000000000000000
  0.4780122036359651  0.4780122036359651  0.0000000000000000
  0.9072223291249270  0.4499739903867738  0.5000000000000000
  0.4499739903867738  0.9072223291249270  0.5000000000000000
 
  0.00000000E+00  0.00000000E+00  0.00000000E+00
  0.00000000E+00  0.00000000E+00  0.00000000E+00
  0.00000000E+00  0.00000000E+00  0.00000000E+00
  0.00000000E+00  0.00000000E+00  0.00000000E+00
  0.00000000E+00  0.00000000E+00  0.00000000E+00
  0.00000000E+00  0.00000000E+00  0.00000000E+00
  0.00000000E+00  0.00000000E+00  0.00000000E+00
  0.00000000E+00  0.00000000E+00  0.00000000E+00
  0.00000000E+00  0.00000000E+00  0.00000000E+00
  0.00000000E+00  0.00000000E+00  0.00000000E+00
  0.00000000E+00  0.00000000E+00  0.00000000E+00
  0.00000000E+00  0.00000000E+00  0.00000000E+00
  0.00000000E+00  0.00000000E+00  0.00000000E+00
  0.00000000E+00  0.00000000E+00  0.00000000E+00
  0.00000000E+00  0.00000000E+00  0.00000000E+00
  0.00000000E+00  0.00000000E+00  0.00000000E+00
  0.00000000E+00  0.00000000E+00  0.00000000E+00
  0.00000000E+00  0.00000000E+00  0.00000000E+00
  0.00000000E+00  0.00000000E+00  0.00000000E+00
  0.00000000E+00  0.00000000E+00  0.00000000E+00
  0.00000000E+00  0.00000000E+00  0.00000000E+00
