Ga2Ho1   [HEX,HEX,hP3] (STD_PRIM doi:10.
   1.00000000000000     
     2.1072707658986949   -3.6499000318411241    0.0000000000000000
     2.1069936224336954    3.6497400229870030    0.0000000000000000
     0.0000000000000000    0.0000000000000000    4.0406718904488494
   2   1
Direct
  0.6666706167671618  0.3333412335343307  0.5000000000000000
  0.3333293832328382  0.6666587664656692  0.5000000000000000
 -0.0000000000000000 -0.0000000000000000  0.0000000000000000
 
  0.00000000E+00  0.00000000E+00  0.00000000E+00
  0.00000000E+00  0.00000000E+00  0.00000000E+00
  0.00000000E+00  0.00000000E+00  0.00000000E+00
