Rh3Te2   [ORCC,ORCC,oS20] (STD_PRIM doi:
   1.00000000000000     
     1.8809345091061125   -6.2932454503562996    0.0000000000000000
     1.8809345091061125    6.2932454503562996    0.0000000000000000
     0.0000000000000000    0.0000000000000000    7.7211054978278346
   6   4
Direct
  0.4654379810707042  0.5345620189292959  0.7500000000000000
  0.5345620189292959  0.4654379810707042  0.2500000000000000
  0.3408461100318853  0.6591538899681147  0.0620595267748980
  0.6591538899681147  0.3408461100318853  0.5620595267748979
  0.3408461100318853  0.6591538899681147  0.4379404732251020
  0.6591538899681147  0.3408461100318853  0.9379404732251021
  0.0000000000000000  0.0000000000000000  0.0000000000000000
  0.0000000000000000  0.0000000000000000  0.5000000000000000
  0.2534300177596231  0.7465699822403770  0.7500000000000000
  0.7465699822403770  0.2534300177596231  0.2500000000000000
 
  0.00000000E+00  0.00000000E+00  0.00000000E+00
  0.00000000E+00  0.00000000E+00  0.00000000E+00
  0.00000000E+00  0.00000000E+00  0.00000000E+00
  0.00000000E+00  0.00000000E+00  0.00000000E+00
  0.00000000E+00  0.00000000E+00  0.00000000E+00
  0.00000000E+00  0.00000000E+00  0.00000000E+00
  0.00000000E+00  0.00000000E+00  0.00000000E+00
  0.00000000E+00  0.00000000E+00  0.00000000E+00
  0.00000000E+00  0.00000000E+00  0.00000000E+00
  0.00000000E+00  0.00000000E+00  0.00000000E+00
