Pd2Si3Y3   [ORCC,ORCC,oS32] (STD_PRIM do
   1.00000000000000     
     2.1254047890046279   -5.2373779049533562    0.0000000000000000
     2.1254047890046279    5.2373779049533562   -0.0000000000000000
     0.0000000000000000   -0.0000000000000000   14.1704483748969761
   4   6   6
Direct
  0.2955205436390682  0.7044794563609318  0.9057350502875455
  0.7044794563609318  0.2955205436390682  0.4057350502875455
  0.2955205436390682  0.7044794563609318  0.5942649497124545
  0.7044794563609318  0.2955205436390682  0.0942649497124545
  0.8960281415853361  0.1039718584146640  0.9602207232245531
  0.1039718584146640  0.8960281415853361  0.4602207232245532
  0.8960281415853361  0.1039718584146640  0.5397792767754469
  0.1039718584146640  0.8960281415853361  0.0397792767754469
  0.1610710151960294  0.8389289848039706  0.7500000000000000
  0.8389289848039706  0.1610710151960294  0.2500000000000000
  0.5883131088502597  0.4116868911497403  0.8894239993346787
  0.4116868911497403  0.5883131088502597  0.3894239993346787
  0.5883131088502597  0.4116868911497403  0.6105760006653213
  0.4116868911497403  0.5883131088502597  0.1105760006653212
  0.8664846093487552  0.1335153906512448  0.7500000000000000
  0.1335153906512448  0.8664846093487552  0.2500000000000000
 
  0.00000000E+00  0.00000000E+00  0.00000000E+00
  0.00000000E+00  0.00000000E+00  0.00000000E+00
  0.00000000E+00  0.00000000E+00  0.00000000E+00
  0.00000000E+00  0.00000000E+00  0.00000000E+00
  0.00000000E+00  0.00000000E+00  0.00000000E+00
  0.00000000E+00  0.00000000E+00  0.00000000E+00
  0.00000000E+00  0.00000000E+00  0.00000000E+00
  0.00000000E+00  0.00000000E+00  0.00000000E+00
  0.00000000E+00  0.00000000E+00  0.00000000E+00
  0.00000000E+00  0.00000000E+00  0.00000000E+00
  0.00000000E+00  0.00000000E+00  0.00000000E+00
  0.00000000E+00  0.00000000E+00  0.00000000E+00
  0.00000000E+00  0.00000000E+00  0.00000000E+00
  0.00000000E+00  0.00000000E+00  0.00000000E+00
  0.00000000E+00  0.00000000E+00  0.00000000E+00
  0.00000000E+00  0.00000000E+00  0.00000000E+00
