As1In1Pt5   [TET,TET,tP7] (STD_PRIM doi:
   1.00000000000000     
     4.0273213787168993    0.0000000000000000    0.0000000000000000
     0.0000000000000000    4.0273213787168993    0.0000000000000000
     0.0000000000000000    0.0000000000000000    7.0957446474442145
   1   1   5
Direct
  0.0000000000000000  0.0000000000000000  0.5000000000000000
  0.5000000000000000  0.5000000000000000  0.0000000000000000
  0.0000000000000000  0.0000000000000000  0.0000000000000000
  0.0000000000000000  0.5000000000000000  0.2853485996271914
  0.5000000000000000  0.0000000000000000  0.2853485996271914
  0.0000000000000000  0.5000000000000000  0.7146514003728086
  0.5000000000000000  0.0000000000000000  0.7146514003728086
 
  0.00000000E+00  0.00000000E+00  0.00000000E+00
  0.00000000E+00  0.00000000E+00  0.00000000E+00
  0.00000000E+00  0.00000000E+00  0.00000000E+00
  0.00000000E+00  0.00000000E+00  0.00000000E+00
  0.00000000E+00  0.00000000E+00  0.00000000E+00
  0.00000000E+00  0.00000000E+00  0.00000000E+00
  0.00000000E+00  0.00000000E+00  0.00000000E+00
