Al2Cd1O4   [FCC,FCC,cF56] (STD_PRIM doi:
   1.22474500000000     
    -0.0000000000000000    3.4574827228222014    3.4574827228222014
     3.4574827228222014   -0.0000000000000000    3.4574827228222014
     3.4574827228222014    3.4574827228222014    0.0000000000000000
   4   2   8
Direct
  0.5000000000000000  0.5000000000000000  0.5000000000000000
 -0.0000000000000000  0.5000000000000000  0.5000000000000000
  0.5000000000000000  0.0000000000000000  0.5000000000000000
  0.5000000000000000  0.5000000000000000  0.0000000000000000
  0.8750000000000000  0.8750000000000000  0.8750000000000000
  0.1250000000000000  0.1250000000000000  0.1250000000000000
  0.7297539150718131  0.7297539150718131  0.7297539150718131
  0.3107382547845537  0.7297539150718131  0.7297539150718131
  0.7297539150718131  0.3107382547845537  0.7297539150718131
  0.7297539150718131  0.7297539150718131  0.3107382547845537
  0.6892617452154464  0.2702460849281870  0.2702460849281870
  0.2702460849281870  0.2702460849281870  0.2702460849281870
  0.2702460849281870  0.6892617452154464  0.2702460849281870
  0.2702460849281870  0.2702460849281870  0.6892617452154464
 
  0.00000000E+00  0.00000000E+00  0.00000000E+00
  0.00000000E+00  0.00000000E+00  0.00000000E+00
  0.00000000E+00  0.00000000E+00  0.00000000E+00
  0.00000000E+00  0.00000000E+00  0.00000000E+00
  0.00000000E+00  0.00000000E+00  0.00000000E+00
  0.00000000E+00  0.00000000E+00  0.00000000E+00
  0.00000000E+00  0.00000000E+00  0.00000000E+00
  0.00000000E+00  0.00000000E+00  0.00000000E+00
  0.00000000E+00  0.00000000E+00  0.00000000E+00
  0.00000000E+00  0.00000000E+00  0.00000000E+00
  0.00000000E+00  0.00000000E+00  0.00000000E+00
  0.00000000E+00  0.00000000E+00  0.00000000E+00
  0.00000000E+00  0.00000000E+00  0.00000000E+00
  0.00000000E+00  0.00000000E+00  0.00000000E+00
