F2Pd1   [CUB,CUB,cP12] (STD_PRIM doi:10.
   1.00000000000000     
     5.4439643849118937   -0.0000000000000000   -0.0000000000000000
     0.0000000000000000    5.4439643849118937    0.0000000000000000
    -0.0000000000000000    0.0000000000000000    5.4439643849118937
   8   4
Direct
  0.3432152781034702  0.3432152781034702  0.3432152781034702
  0.1567847218965298  0.6567847218965298  0.8432152781034702
  0.6567847218965298  0.8432152781034702  0.1567847218965298
  0.8432152781034702  0.1567847218965298  0.6567847218965298
  0.6567847218965298  0.6567847218965298  0.6567847218965298
  0.8432152781034702  0.3432152781034702  0.1567847218965298
  0.3432152781034702  0.1567847218965298  0.8432152781034702
  0.1567847218965298  0.8432152781034702  0.3432152781034702
  0.0000000000000000  0.0000000000000000  0.0000000000000000
  0.5000000000000000  0.0000000000000000  0.5000000000000000
  0.0000000000000000  0.5000000000000000  0.5000000000000000
  0.5000000000000000  0.5000000000000000  0.0000000000000000
 
  0.00000000E+00  0.00000000E+00  0.00000000E+00
  0.00000000E+00  0.00000000E+00  0.00000000E+00
  0.00000000E+00  0.00000000E+00  0.00000000E+00
  0.00000000E+00  0.00000000E+00  0.00000000E+00
  0.00000000E+00  0.00000000E+00  0.00000000E+00
  0.00000000E+00  0.00000000E+00  0.00000000E+00
  0.00000000E+00  0.00000000E+00  0.00000000E+00
  0.00000000E+00  0.00000000E+00  0.00000000E+00
  0.00000000E+00  0.00000000E+00  0.00000000E+00
  0.00000000E+00  0.00000000E+00  0.00000000E+00
  0.00000000E+00  0.00000000E+00  0.00000000E+00
  0.00000000E+00  0.00000000E+00  0.00000000E+00
