Mg1Te1   [HEX,HEX,hP4] (STD_PRIM doi:10.
   1.00000000000000     
     2.3032229941891966   -3.9894026317749680    0.0000000000000000
     2.3032229941891966    3.9894026317749680    0.0000000000000000
     0.0000000000000000    0.0000000000000000    7.4792408390507275
   2   2
Direct
  0.3333339800389785  0.6666660199610215  0.0005611162346638
  0.6666660199610215  0.3333339800389785  0.5005611162346638
  0.3333368406443321  0.6666631593556679  0.3774388837653363
  0.6666631593556679  0.3333368406443321  0.8774388837653363
 
  0.00000000E+00  0.00000000E+00  0.00000000E+00
  0.00000000E+00  0.00000000E+00  0.00000000E+00
  0.00000000E+00  0.00000000E+00  0.00000000E+00
  0.00000000E+00  0.00000000E+00  0.00000000E+00
