Tb1   [HEX,HEX,hP6] (STD_PRIM doi:10.101
   1.00000000000000     
     1.7849804157480536   -3.0916767705910502    0.0000000000000000
     1.7849652316843201    3.0916680040677664   -0.0000000000000000
    -0.0000000000000000   -0.0000000000000000   17.3377158575029391
   6
Direct
  0.0000086887949980  0.0000173775899888  0.2500000000000000
  0.9999913112050020  0.9999826224100112  0.7500000000000000
  0.6666865364465325  0.3333730728930649  0.0836417802495537
  0.3333134635534675  0.6666269271069351  0.5836417802495537
  0.3333134635534675  0.6666269271069351  0.9163582197504463
  0.6666865364465325  0.3333730728930649  0.4163582197504463
 
  0.00000000E+00  0.00000000E+00  0.00000000E+00
  0.00000000E+00  0.00000000E+00  0.00000000E+00
  0.00000000E+00  0.00000000E+00  0.00000000E+00
  0.00000000E+00  0.00000000E+00  0.00000000E+00
  0.00000000E+00  0.00000000E+00  0.00000000E+00
  0.00000000E+00  0.00000000E+00  0.00000000E+00
