Ir3Mg3Si8   [FCC,FCC,cF112] (STD_PRIM do
   1.22474500000000     
    -0.0000000000000000    4.9867528146213775    4.9867528146213775
     4.9867528146213775    0.0000000000000000    4.9867528146213775
     4.9867528146213775    4.9867528146213775    0.0000000000000000
   6   6  16
Direct
  0.2549565786080518  0.7450434213919481  0.7450434213919481
  0.7450434213919481  0.2549565786080518  0.2549565786080518
  0.7450434213919481  0.7450434213919481  0.2549565786080518
  0.2549565786080518  0.2549565786080518  0.7450434213919481
  0.7450434213919481  0.2549565786080518  0.7450434213919481
  0.2549565786080518  0.7450434213919481  0.2549565786080518
  0.6501829398187540  0.6501829398187540  0.6501829398187540
  0.6501829398187540  0.0494511805437379  0.6501829398187540
  0.6501829398187540  0.6501829398187540  0.0494511805437379
  0.0494511805437379  0.6501829398187540  0.6501829398187540
 -0.0000000000000000  0.0000000000000000 -0.0000000000000000
  0.2500000000000000  0.2500000000000000  0.2500000000000000
  0.0287429808052600  0.6110603508658196  0.0287429808052600
  0.0287429808052600  0.3314536875236676  0.0287429808052600
  0.6110603508658196  0.0287429808052600  0.3314536875236676
  0.3314536875236676  0.0287429808052600  0.6110603508658196
  0.6110603508658196  0.0287429808052600  0.0287429808052600
  0.3314536875236676  0.0287429808052600  0.0287429808052600
  0.0287429808052600  0.3314536875236676  0.6110603508658196
  0.0287429808052600  0.6110603508658196  0.3314536875236676
  0.0287429808052600  0.0287429808052600  0.6110603508658196
  0.0287429808052600  0.0287429808052600  0.3314536875236676
  0.3314536875236676  0.6110603508658196  0.0287429808052600
  0.6110603508658196  0.3314536875236676  0.0287429808052600
  0.4256765956740741  0.4256765956740741  0.4256765956740741
  0.4256765956740741  0.7229702129777920  0.4256765956740741
  0.4256765956740741  0.4256765956740741  0.7229702129777920
  0.7229702129777920  0.4256765956740741  0.4256765956740741
 
  0.00000000E+00  0.00000000E+00  0.00000000E+00
  0.00000000E+00  0.00000000E+00  0.00000000E+00
  0.00000000E+00  0.00000000E+00  0.00000000E+00
  0.00000000E+00  0.00000000E+00  0.00000000E+00
  0.00000000E+00  0.00000000E+00  0.00000000E+00
  0.00000000E+00  0.00000000E+00  0.00000000E+00
  0.00000000E+00  0.00000000E+00  0.00000000E+00
  0.00000000E+00  0.00000000E+00  0.00000000E+00
  0.00000000E+00  0.00000000E+00  0.00000000E+00
  0.00000000E+00  0.00000000E+00  0.00000000E+00
  0.00000000E+00  0.00000000E+00  0.00000000E+00
  0.00000000E+00  0.00000000E+00  0.00000000E+00
  0.00000000E+00  0.00000000E+00  0.00000000E+00
  0.00000000E+00  0.00000000E+00  0.00000000E+00
  0.00000000E+00  0.00000000E+00  0.00000000E+00
  0.00000000E+00  0.00000000E+00  0.00000000E+00
  0.00000000E+00  0.00000000E+00  0.00000000E+00
  0.00000000E+00  0.00000000E+00  0.00000000E+00
  0.00000000E+00  0.00000000E+00  0.00000000E+00
  0.00000000E+00  0.00000000E+00  0.00000000E+00
  0.00000000E+00  0.00000000E+00  0.00000000E+00
  0.00000000E+00  0.00000000E+00  0.00000000E+00
  0.00000000E+00  0.00000000E+00  0.00000000E+00
  0.00000000E+00  0.00000000E+00  0.00000000E+00
  0.00000000E+00  0.00000000E+00  0.00000000E+00
  0.00000000E+00  0.00000000E+00  0.00000000E+00
  0.00000000E+00  0.00000000E+00  0.00000000E+00
  0.00000000E+00  0.00000000E+00  0.00000000E+00
