Ir4La3Sn13   [CUB,CUB,cP40] (STD_PRIM do
   1.00000000000000     
     9.9536859457636311    0.0000000000000000    0.0000000000000000
    -0.0000000000000000    9.9536859457636311    0.0000000000000000
     0.0000000000000000   -0.0000000000000000    9.9536859457636311
   8   6  26
Direct
  0.2500000000000000  0.2500000000000000  0.2500000000000000
  0.7500000000000000  0.7500000000000000  0.2500000000000000
  0.7500000000000000  0.2500000000000000  0.7500000000000000
  0.2500000000000000  0.7500000000000000  0.7500000000000000
  0.7500000000000000  0.7500000000000000  0.7500000000000000
  0.2500000000000000  0.2500000000000000  0.7500000000000000
  0.2500000000000000  0.7500000000000000  0.2500000000000000
  0.7500000000000000  0.2500000000000000  0.2500000000000000
  0.2500000000000000 -0.0000000000000000  0.5000000000000000
  0.7500000000000000  0.0000000000000000  0.5000000000000000
  0.5000000000000000  0.2500000000000000  0.0000000000000000
  0.5000000000000000  0.7500000000000000  0.0000000000000000
 -0.0000000000000000  0.5000000000000000  0.2500000000000000
  0.0000000000000000  0.5000000000000000  0.7500000000000000
  0.0000000000000000  0.0000000000000000  0.0000000000000000
  0.5000000000000000  0.5000000000000000  0.5000000000000000
 -0.0000000000000000  0.1533881981729426  0.3048572050638678
 -0.0000000000000000  0.8466118018270574  0.3048572050638678
  0.0000000000000000  0.1533881981729426  0.6951427949361323
  0.0000000000000000  0.8466118018270574  0.6951427949361323
  0.3048572050638678 -0.0000000000000000  0.1533881981729426
  0.3048572050638678 -0.0000000000000000  0.8466118018270574
  0.6951427949361323  0.0000000000000000  0.1533881981729426
  0.6951427949361323  0.0000000000000000  0.8466118018270574
  0.1533881981729426  0.3048572050638678 -0.0000000000000000
  0.8466118018270574  0.3048572050638678 -0.0000000000000000
  0.1533881981729426  0.6951427949361323  0.0000000000000000
  0.8466118018270574  0.6951427949361323  0.0000000000000000
  0.6533881981729426  0.5000000000000000  0.1951427949361323
  0.3466118018270574  0.5000000000000000  0.1951427949361323
  0.6533881981729426  0.5000000000000000  0.8048572050638677
  0.3466118018270574  0.5000000000000000  0.8048572050638677
  0.5000000000000000  0.8048572050638677  0.3466118018270574
  0.5000000000000000  0.8048572050638677  0.6533881981729426
  0.5000000000000000  0.1951427949361323  0.3466118018270574
  0.5000000000000000  0.1951427949361323  0.6533881981729426
  0.8048572050638677  0.6533881981729426  0.5000000000000000
  0.8048572050638677  0.3466118018270574  0.5000000000000000
  0.1951427949361323  0.6533881981729426  0.5000000000000000
  0.1951427949361323  0.3466118018270574  0.5000000000000000
 
  0.00000000E+00  0.00000000E+00  0.00000000E+00
  0.00000000E+00  0.00000000E+00  0.00000000E+00
  0.00000000E+00  0.00000000E+00  0.00000000E+00
  0.00000000E+00  0.00000000E+00  0.00000000E+00
  0.00000000E+00  0.00000000E+00  0.00000000E+00
  0.00000000E+00  0.00000000E+00  0.00000000E+00
  0.00000000E+00  0.00000000E+00  0.00000000E+00
  0.00000000E+00  0.00000000E+00  0.00000000E+00
  0.00000000E+00  0.00000000E+00  0.00000000E+00
  0.00000000E+00  0.00000000E+00  0.00000000E+00
  0.00000000E+00  0.00000000E+00  0.00000000E+00
  0.00000000E+00  0.00000000E+00  0.00000000E+00
  0.00000000E+00  0.00000000E+00  0.00000000E+00
  0.00000000E+00  0.00000000E+00  0.00000000E+00
  0.00000000E+00  0.00000000E+00  0.00000000E+00
  0.00000000E+00  0.00000000E+00  0.00000000E+00
  0.00000000E+00  0.00000000E+00  0.00000000E+00
  0.00000000E+00  0.00000000E+00  0.00000000E+00
  0.00000000E+00  0.00000000E+00  0.00000000E+00
  0.00000000E+00  0.00000000E+00  0.00000000E+00
  0.00000000E+00  0.00000000E+00  0.00000000E+00
  0.00000000E+00  0.00000000E+00  0.00000000E+00
  0.00000000E+00  0.00000000E+00  0.00000000E+00
  0.00000000E+00  0.00000000E+00  0.00000000E+00
  0.00000000E+00  0.00000000E+00  0.00000000E+00
  0.00000000E+00  0.00000000E+00  0.00000000E+00
  0.00000000E+00  0.00000000E+00  0.00000000E+00
  0.00000000E+00  0.00000000E+00  0.00000000E+00
  0.00000000E+00  0.00000000E+00  0.00000000E+00
  0.00000000E+00  0.00000000E+00  0.00000000E+00
  0.00000000E+00  0.00000000E+00  0.00000000E+00
  0.00000000E+00  0.00000000E+00  0.00000000E+00
  0.00000000E+00  0.00000000E+00  0.00000000E+00
  0.00000000E+00  0.00000000E+00  0.00000000E+00
  0.00000000E+00  0.00000000E+00  0.00000000E+00
  0.00000000E+00  0.00000000E+00  0.00000000E+00
  0.00000000E+00  0.00000000E+00  0.00000000E+00
  0.00000000E+00  0.00000000E+00  0.00000000E+00
  0.00000000E+00  0.00000000E+00  0.00000000E+00
  0.00000000E+00  0.00000000E+00  0.00000000E+00
