Ir1Li2Mg1   [CUB,CUB,cP16] (STD_PRIM doi
   1.00000000000000     
     6.1625524908968901    0.0000000000000000    0.0000000000000000
     0.0000000000000000    6.1625524908968901    0.0000000000000000
     0.0000000000000000    0.0000000000000000    6.1625524908968901
   4   8   4
Direct
  0.7481721975008568  0.7481721975008568  0.7481721975008568
  0.2518278024991432  0.2518278024991432  0.7481721975008568
  0.2518278024991432  0.7481721975008568  0.2518278024991432
  0.7481721975008568  0.2518278024991432  0.2518278024991432
  0.5000000000000000  0.5000000000000000  0.5000000000000000
  0.0000000000000000  0.5000000000000000  0.5000000000000000
  0.5000000000000000  0.0000000000000000  0.5000000000000000
  0.5000000000000000  0.5000000000000000  0.0000000000000000
  0.2690143480355474  0.2690143480355474  0.2690143480355474
  0.7309856519644526  0.7309856519644526  0.2690143480355474
  0.7309856519644526  0.2690143480355474  0.7309856519644526
  0.2690143480355474  0.7309856519644526  0.7309856519644526
  0.0000000000000000  0.0000000000000000  0.0000000000000000
  0.5000000000000000  0.0000000000000000  0.0000000000000000
  0.0000000000000000  0.5000000000000000  0.0000000000000000
  0.0000000000000000  0.0000000000000000  0.5000000000000000
 
  0.00000000E+00  0.00000000E+00  0.00000000E+00
  0.00000000E+00  0.00000000E+00  0.00000000E+00
  0.00000000E+00  0.00000000E+00  0.00000000E+00
  0.00000000E+00  0.00000000E+00  0.00000000E+00
  0.00000000E+00  0.00000000E+00  0.00000000E+00
  0.00000000E+00  0.00000000E+00  0.00000000E+00
  0.00000000E+00  0.00000000E+00  0.00000000E+00
  0.00000000E+00  0.00000000E+00  0.00000000E+00
  0.00000000E+00  0.00000000E+00  0.00000000E+00
  0.00000000E+00  0.00000000E+00  0.00000000E+00
  0.00000000E+00  0.00000000E+00  0.00000000E+00
  0.00000000E+00  0.00000000E+00  0.00000000E+00
  0.00000000E+00  0.00000000E+00  0.00000000E+00
  0.00000000E+00  0.00000000E+00  0.00000000E+00
  0.00000000E+00  0.00000000E+00  0.00000000E+00
  0.00000000E+00  0.00000000E+00  0.00000000E+00
