Ag1F3Rb1   [BCT,BCT2,tI20] (STD_PRIM doi
   1.00000000000000     
    -3.1956244944478942    3.1956244944478942    4.3807723479322851
     3.1956244944478942   -3.1956244944478942    4.3807723479322851
     3.1956244944478942    3.1956244944478942   -4.3807723479322851
   2   6   2
Direct
  0.0000000000000000  0.5000000000000000  0.5000000000000000
  0.5000000000000000 -0.0000000000000000  0.5000000000000000
  0.2500000000000000  0.7500000000000000  0.5000000000000000
  0.7500000000000000  0.2500000000000000  0.5000000000000000
  0.7696061089622405  0.7303938910377595  0.5000000000000000
  0.2303938910377596  0.2696061089622405  0.5000000000000000
  0.7303938910377595  0.2303938910377596  0.9607877820755333
  0.2696061089622405  0.7696061089622405  0.0392122179244666
  0.2500000000000000  0.2500000000000000 -0.0000000000000000
  0.7500000000000000  0.7500000000000000 -0.0000000000000000
 
  0.00000000E+00  0.00000000E+00  0.00000000E+00
  0.00000000E+00  0.00000000E+00  0.00000000E+00
  0.00000000E+00  0.00000000E+00  0.00000000E+00
  0.00000000E+00  0.00000000E+00  0.00000000E+00
  0.00000000E+00  0.00000000E+00  0.00000000E+00
  0.00000000E+00  0.00000000E+00  0.00000000E+00
  0.00000000E+00  0.00000000E+00  0.00000000E+00
  0.00000000E+00  0.00000000E+00  0.00000000E+00
  0.00000000E+00  0.00000000E+00  0.00000000E+00
  0.00000000E+00  0.00000000E+00  0.00000000E+00
