Ge13Ho3Rh4   [CUB,CUB,cP40] (STD_PRIM do
   1.00000000000000     
     8.9879814830272444    0.0000000000000000   -0.0000000000000000
     0.0000000000000000    8.9879814830272444   -0.0000000000000000
     0.0000000000000000   -0.0000000000000000    8.9879814830272444
  26   6   8
Direct
  0.0000000000000000  0.0000000000000000  0.0000000000000000
  0.5000000000000000  0.5000000000000000  0.5000000000000000
 -0.0000000000000000  0.1472823719463801  0.3103751071751333
  0.0000000000000000  0.8527176280536201  0.3103751071751333
 -0.0000000000000000  0.1472823719463801  0.6896248928248666
 -0.0000000000000000  0.8527176280536201  0.6896248928248666
  0.3103751071751333 -0.0000000000000000  0.1472823719463801
  0.3103751071751333 -0.0000000000000000  0.8527176280536201
  0.6896248928248666  0.0000000000000000  0.1472823719463801
  0.6896248928248666  0.0000000000000000  0.8527176280536201
  0.1472823719463801  0.3103751071751333  0.0000000000000000
  0.8527176280536201  0.3103751071751333  0.0000000000000000
  0.1472823719463801  0.6896248928248666 -0.0000000000000000
  0.8527176280536201  0.6896248928248666 -0.0000000000000000
  0.6472823719463799  0.5000000000000000  0.1896248928248667
  0.3527176280536200  0.5000000000000000  0.1896248928248667
  0.6472823719463799  0.5000000000000000  0.8103751071751334
  0.3527176280536200  0.5000000000000000  0.8103751071751334
  0.5000000000000000  0.8103751071751334  0.3527176280536200
  0.5000000000000000  0.8103751071751334  0.6472823719463799
  0.5000000000000000  0.1896248928248667  0.3527176280536200
  0.5000000000000000  0.1896248928248667  0.6472823719463799
  0.8103751071751334  0.6472823719463799  0.5000000000000000
  0.8103751071751334  0.3527176280536200  0.5000000000000000
  0.1896248928248667  0.6472823719463799  0.5000000000000000
  0.1896248928248667  0.3527176280536200  0.5000000000000000
  0.2500000000000000 -0.0000000000000000  0.5000000000000000
  0.7500000000000000  0.0000000000000000  0.5000000000000000
  0.5000000000000000  0.2500000000000000 -0.0000000000000000
  0.5000000000000000  0.7500000000000000  0.0000000000000000
  0.0000000000000000  0.5000000000000000  0.2500000000000000
 -0.0000000000000000  0.5000000000000000  0.7500000000000000
  0.2500000000000000  0.2500000000000000  0.2500000000000000
  0.7500000000000000  0.7500000000000000  0.2500000000000000
  0.7500000000000000  0.2500000000000000  0.7500000000000000
  0.2500000000000000  0.7500000000000000  0.7500000000000000
  0.7500000000000000  0.7500000000000000  0.7500000000000000
  0.2500000000000000  0.2500000000000000  0.7500000000000000
  0.2500000000000000  0.7500000000000000  0.2500000000000000
  0.7500000000000000  0.2500000000000000  0.2500000000000000
 
  0.00000000E+00  0.00000000E+00  0.00000000E+00
  0.00000000E+00  0.00000000E+00  0.00000000E+00
  0.00000000E+00  0.00000000E+00  0.00000000E+00
  0.00000000E+00  0.00000000E+00  0.00000000E+00
  0.00000000E+00  0.00000000E+00  0.00000000E+00
  0.00000000E+00  0.00000000E+00  0.00000000E+00
  0.00000000E+00  0.00000000E+00  0.00000000E+00
  0.00000000E+00  0.00000000E+00  0.00000000E+00
  0.00000000E+00  0.00000000E+00  0.00000000E+00
  0.00000000E+00  0.00000000E+00  0.00000000E+00
  0.00000000E+00  0.00000000E+00  0.00000000E+00
  0.00000000E+00  0.00000000E+00  0.00000000E+00
  0.00000000E+00  0.00000000E+00  0.00000000E+00
  0.00000000E+00  0.00000000E+00  0.00000000E+00
  0.00000000E+00  0.00000000E+00  0.00000000E+00
  0.00000000E+00  0.00000000E+00  0.00000000E+00
  0.00000000E+00  0.00000000E+00  0.00000000E+00
  0.00000000E+00  0.00000000E+00  0.00000000E+00
  0.00000000E+00  0.00000000E+00  0.00000000E+00
  0.00000000E+00  0.00000000E+00  0.00000000E+00
  0.00000000E+00  0.00000000E+00  0.00000000E+00
  0.00000000E+00  0.00000000E+00  0.00000000E+00
  0.00000000E+00  0.00000000E+00  0.00000000E+00
  0.00000000E+00  0.00000000E+00  0.00000000E+00
  0.00000000E+00  0.00000000E+00  0.00000000E+00
  0.00000000E+00  0.00000000E+00  0.00000000E+00
  0.00000000E+00  0.00000000E+00  0.00000000E+00
  0.00000000E+00  0.00000000E+00  0.00000000E+00
  0.00000000E+00  0.00000000E+00  0.00000000E+00
  0.00000000E+00  0.00000000E+00  0.00000000E+00
  0.00000000E+00  0.00000000E+00  0.00000000E+00
  0.00000000E+00  0.00000000E+00  0.00000000E+00
  0.00000000E+00  0.00000000E+00  0.00000000E+00
  0.00000000E+00  0.00000000E+00  0.00000000E+00
  0.00000000E+00  0.00000000E+00  0.00000000E+00
  0.00000000E+00  0.00000000E+00  0.00000000E+00
  0.00000000E+00  0.00000000E+00  0.00000000E+00
  0.00000000E+00  0.00000000E+00  0.00000000E+00
  0.00000000E+00  0.00000000E+00  0.00000000E+00
  0.00000000E+00  0.00000000E+00  0.00000000E+00
