Cu4In1Yb1   [FCC,FCC,cF24] (STD_PRIM doi
   1.22474500000000     
    -0.0000000000000000    2.9666220383273116    2.9666220383273116
     2.9666220383273116   -0.0000000000000000    2.9666220383273116
     2.9666220383273116    2.9666220383273116    0.0000000000000000
   4   1   1
Direct
  0.8768785998230654  0.3743738000589806  0.3743738000589806
  0.3743738000589806  0.8768785998230654  0.3743738000589806
  0.3743738000589806  0.3743738000589806  0.3743738000589806
  0.3743738000589806  0.3743738000589806  0.8768785998230654
 -0.0000000000000000 -0.0000000000000000 -0.0000000000000000
  0.7500000000000000  0.7500000000000000  0.7500000000000000
 
  0.00000000E+00  0.00000000E+00  0.00000000E+00
  0.00000000E+00  0.00000000E+00  0.00000000E+00
  0.00000000E+00  0.00000000E+00  0.00000000E+00
  0.00000000E+00  0.00000000E+00  0.00000000E+00
  0.00000000E+00  0.00000000E+00  0.00000000E+00
  0.00000000E+00  0.00000000E+00  0.00000000E+00
