B2Nb1Ni1   [ORC,ORC,oP16] (STD_PRIM doi:
   1.00000000000000     
     3.1258527604572204    0.0000000000000000    0.0000000000000000
     0.0000000000000000    6.0377506227556266    0.0000000000000000
     0.0000000000000000    0.0000000000000000    8.1922385382397884
   8   4   4
Direct
  0.2500000000000000  0.2409976960111183  0.5767667891552463
  0.7500000000000000  0.2590023039888818  0.0767667891552463
  0.7500000000000000  0.7590023039888817  0.4232332108447537
  0.2500000000000000  0.7409976960111183  0.9232332108447537
  0.2500000000000000  0.1734413221670991  0.1676784965170770
  0.7500000000000000  0.3265586778329009  0.6676784965170770
  0.7500000000000000  0.8265586778329008  0.8323215034829230
  0.2500000000000000  0.6734413221670992  0.3323215034829230
  0.2500000000000000  0.1330260848102940  0.8671200902388724
  0.7500000000000000  0.3669739151897060  0.3671200902388724
  0.7500000000000000  0.8669739151897060  0.1328799097611277
  0.2500000000000000  0.6330260848102940  0.6328799097611276
  0.2500000000000000  0.0000408690493305  0.3847473735765132
  0.7500000000000000  0.4999591309506696  0.8847473735765132
  0.7500000000000000 -0.0000408690493305  0.6152526264234868
  0.2500000000000000  0.5000408690493304  0.1152526264234868
 
  0.00000000E+00  0.00000000E+00  0.00000000E+00
  0.00000000E+00  0.00000000E+00  0.00000000E+00
  0.00000000E+00  0.00000000E+00  0.00000000E+00
  0.00000000E+00  0.00000000E+00  0.00000000E+00
  0.00000000E+00  0.00000000E+00  0.00000000E+00
  0.00000000E+00  0.00000000E+00  0.00000000E+00
  0.00000000E+00  0.00000000E+00  0.00000000E+00
  0.00000000E+00  0.00000000E+00  0.00000000E+00
  0.00000000E+00  0.00000000E+00  0.00000000E+00
  0.00000000E+00  0.00000000E+00  0.00000000E+00
  0.00000000E+00  0.00000000E+00  0.00000000E+00
  0.00000000E+00  0.00000000E+00  0.00000000E+00
  0.00000000E+00  0.00000000E+00  0.00000000E+00
  0.00000000E+00  0.00000000E+00  0.00000000E+00
  0.00000000E+00  0.00000000E+00  0.00000000E+00
  0.00000000E+00  0.00000000E+00  0.00000000E+00
