S4Y2Zn1   [FCC,FCC,cF56] (STD_PRIM doi:1
   1.22474500000000     
     0.0000000000000000    4.4882611646472794    4.4882611646472794
     4.4882611646472794    0.0000000000000000    4.4882611646472794
     4.4882611646472794    4.4882611646472794   -0.0000000000000000
   8   4   2
Direct
  0.2525271709623829  0.2491576096792057  0.2491576096792057
  0.7491576096792057  0.2491576096792057  0.7525271709623830
  0.7491576096792057  0.2491576096792057  0.2491576096792057
  0.7491576096792057  0.7525271709623830  0.2491576096792057
  0.2508423903207943  0.7508423903207943  0.2474728290376171
  0.7474728290376170  0.7508423903207943  0.7508423903207943
  0.2508423903207943  0.7508423903207943  0.7508423903207943
  0.2508423903207943  0.2474728290376171  0.7508423903207943
 -0.0000000000000000  0.0000000000000000  0.0000000000000000
  0.5000000000000000  0.0000000000000000  0.5000000000000000
  0.5000000000000000 -0.0000000000000000  0.0000000000000000
  0.5000000000000000  0.5000000000000000  0.0000000000000000
  0.8750000000000000  0.3750000000000000  0.3750000000000000
  0.1250000000000000  0.6250000000000000  0.6250000000000000
 
  0.00000000E+00  0.00000000E+00  0.00000000E+00
  0.00000000E+00  0.00000000E+00  0.00000000E+00
  0.00000000E+00  0.00000000E+00  0.00000000E+00
  0.00000000E+00  0.00000000E+00  0.00000000E+00
  0.00000000E+00  0.00000000E+00  0.00000000E+00
  0.00000000E+00  0.00000000E+00  0.00000000E+00
  0.00000000E+00  0.00000000E+00  0.00000000E+00
  0.00000000E+00  0.00000000E+00  0.00000000E+00
  0.00000000E+00  0.00000000E+00  0.00000000E+00
  0.00000000E+00  0.00000000E+00  0.00000000E+00
  0.00000000E+00  0.00000000E+00  0.00000000E+00
  0.00000000E+00  0.00000000E+00  0.00000000E+00
  0.00000000E+00  0.00000000E+00  0.00000000E+00
  0.00000000E+00  0.00000000E+00  0.00000000E+00
