Hf5Sn4   [HEX,HEX,hP18] (STD_PRIM doi:10
   1.00000000000000     
     4.4089586809340284   -7.6364972416306136    0.0000000000000000
     4.4089586809340284    7.6364972416306136    0.0000000000000000
     0.0000000000000000    0.0000000000000000    5.9496768252702905
  10   8
Direct
  0.3333302520041849  0.6666697479958151  0.0000000000000000
  0.6666697479958151  0.3333302520041849  0.5000000000000000
  0.6666697479958151  0.3333302520041849  0.0000000000000000
  0.3333302520041849  0.6666697479958151  0.5000000000000000
  0.2834307159303358  0.0000033422843129  0.2500000000000000
  0.0000033422843129  0.2834307159303358  0.2500000000000000
  0.7165736521319139  0.7165736521319139  0.2500000000000000
  0.7165692840696641  0.9999966577156870  0.7500000000000000
  0.9999966577156870  0.7165692840696641  0.7500000000000000
  0.2834263478680860  0.2834263478680860  0.7500000000000000
 -0.0000000000000000 -0.0000000000000000 -0.0000000000000000
  0.0000000000000000  0.0000000000000000  0.5000000000000000
  0.6147679592837469  0.9999939284301861  0.2500000000000000
  0.9999939284301861  0.6147679592837469  0.2500000000000000
  0.3852390918326574  0.3852390918326574  0.2500000000000000
  0.3852320407162532  0.0000060715698139  0.7500000000000000
  0.0000060715698139  0.3852320407162532  0.7500000000000000
  0.6147609081673426  0.6147609081673426  0.7500000000000000
 
  0.00000000E+00  0.00000000E+00  0.00000000E+00
  0.00000000E+00  0.00000000E+00  0.00000000E+00
  0.00000000E+00  0.00000000E+00  0.00000000E+00
  0.00000000E+00  0.00000000E+00  0.00000000E+00
  0.00000000E+00  0.00000000E+00  0.00000000E+00
  0.00000000E+00  0.00000000E+00  0.00000000E+00
  0.00000000E+00  0.00000000E+00  0.00000000E+00
  0.00000000E+00  0.00000000E+00  0.00000000E+00
  0.00000000E+00  0.00000000E+00  0.00000000E+00
  0.00000000E+00  0.00000000E+00  0.00000000E+00
  0.00000000E+00  0.00000000E+00  0.00000000E+00
  0.00000000E+00  0.00000000E+00  0.00000000E+00
  0.00000000E+00  0.00000000E+00  0.00000000E+00
  0.00000000E+00  0.00000000E+00  0.00000000E+00
  0.00000000E+00  0.00000000E+00  0.00000000E+00
  0.00000000E+00  0.00000000E+00  0.00000000E+00
  0.00000000E+00  0.00000000E+00  0.00000000E+00
  0.00000000E+00  0.00000000E+00  0.00000000E+00
