Dy1Ge2Ru2 #139 - (Dy1Ge2Ru2_ICSD_55931) 
   1.00000000000000     
    -2.1377284290938321    2.1377284290938321    4.8820415593946116
     2.1377284290938321   -2.1377284290938321    4.8820415593946116
     2.1377284290938321    2.1377284290938321   -4.8820415593946116
   1   2   2
Direct
  0.0000000000000000  0.0000000000000000 -0.0000000000000000
  0.6317210813383383  0.6317210813383383  0.0000000000000000
  0.3682789186616617  0.3682789186616617  0.0000000000000000
  0.7500000000000000  0.2500000000000000  0.5000000000000000
  0.2500000000000000  0.7500000000000000  0.5000000000000000
 
  0.00000000E+00  0.00000000E+00  0.00000000E+00
  0.00000000E+00  0.00000000E+00  0.00000000E+00
  0.00000000E+00  0.00000000E+00  0.00000000E+00
  0.00000000E+00  0.00000000E+00  0.00000000E+00
  0.00000000E+00  0.00000000E+00  0.00000000E+00
