Al4La1   [BCT,BCT2,tI10] (STD_PRIM doi:1
   1.00000000000000     
    -2.1819365816724456    2.1819365816724456    5.6408592861562532
     2.1819365816724456   -2.1819365816724456    5.6408592861562532
     2.1819365816724456    2.1819365816724456   -5.6408592861562532
   4   1
Direct
  0.7500000000000000  0.2500000000000000  0.5000000000000000
  0.2500000000000000  0.7500000000000000  0.5000000000000000
  0.3857897855240573  0.3857897855240573  0.0000000000000000
  0.6142102144759428  0.6142102144759428 -0.0000000000000000
  0.0000000000000000 -0.0000000000000000 -0.0000000000000000
 
  0.00000000E+00  0.00000000E+00  0.00000000E+00
  0.00000000E+00  0.00000000E+00  0.00000000E+00
  0.00000000E+00  0.00000000E+00  0.00000000E+00
  0.00000000E+00  0.00000000E+00  0.00000000E+00
  0.00000000E+00  0.00000000E+00  0.00000000E+00
