C1Fe6W6   [FCC,FCC,cF104] (STD_PRIM doi:
   1.22474500000000     
     0.0000000000000000    4.6077225615356605    4.6077225615356605
     4.6077225615356605   -0.0000000000000000    4.6077225615356605
     4.6077225615356605    4.6077225615356605    0.0000000000000000
   2  12  12
Direct
  0.3750000000000000  0.8750000000000000  0.8750000000000000
  0.6250000000000000  0.1249999999999929  0.1250000000000000
  0.1222436049710613  0.2925854650096320  0.2925854650096462
  0.7925854650096462  0.2925854650096462  0.6222436049710613
  0.7925854650096462  0.6222436049710471  0.2925854650096462
  0.7925854650096462  0.2925854650096462  0.2925854650096462
  0.2074145349903538  0.7074145349903538  0.3777563950289387
  0.8777563950289387  0.7074145349903538  0.7074145349903538
  0.2074145349903538  0.3777563950289316  0.7074145349903538
  0.2074145349903538  0.7074145349903467  0.7074145349903538
  0.5000000000000000  0.5000000000000000  0.5000000000000000
 -0.0000000000000000  0.5000000000000000  0.0000000000000000
 -0.0000000000000000  0.0000000000000000  0.5000000000000000
 -0.0000000000000000  0.5000000000000000  0.5000000000000000
  0.5675414352553273  0.6824585647446727  0.6824585647446727
  0.1824585647446728  0.0675414352553273  0.0675414352553273
  0.5675414352553273  0.0675414352553273  0.6824585647446727
  0.1824585647446728  0.6824585647446656  0.0675414352553273
  0.5675414352553273  0.6824585647446727  0.0675414352553273
  0.1824585647446728  0.0675414352553273  0.6824585647446727
  0.8175414352553273  0.3175414352553130  0.9324585647446727
  0.4324585647446728  0.9324585647446656  0.3175414352553272
  0.8175414352553273  0.9324585647446727  0.9324585647446727
  0.4324585647446728  0.3175414352553272  0.3175414352553272
  0.4324585647446728  0.3175414352553130  0.9324585647446727
  0.8175414352553273  0.9324585647446727  0.3175414352553272
 
  0.00000000E+00  0.00000000E+00  0.00000000E+00
  0.00000000E+00  0.00000000E+00  0.00000000E+00
  0.00000000E+00  0.00000000E+00  0.00000000E+00
  0.00000000E+00  0.00000000E+00  0.00000000E+00
  0.00000000E+00  0.00000000E+00  0.00000000E+00
  0.00000000E+00  0.00000000E+00  0.00000000E+00
  0.00000000E+00  0.00000000E+00  0.00000000E+00
  0.00000000E+00  0.00000000E+00  0.00000000E+00
  0.00000000E+00  0.00000000E+00  0.00000000E+00
  0.00000000E+00  0.00000000E+00  0.00000000E+00
  0.00000000E+00  0.00000000E+00  0.00000000E+00
  0.00000000E+00  0.00000000E+00  0.00000000E+00
  0.00000000E+00  0.00000000E+00  0.00000000E+00
  0.00000000E+00  0.00000000E+00  0.00000000E+00
  0.00000000E+00  0.00000000E+00  0.00000000E+00
  0.00000000E+00  0.00000000E+00  0.00000000E+00
  0.00000000E+00  0.00000000E+00  0.00000000E+00
  0.00000000E+00  0.00000000E+00  0.00000000E+00
  0.00000000E+00  0.00000000E+00  0.00000000E+00
  0.00000000E+00  0.00000000E+00  0.00000000E+00
  0.00000000E+00  0.00000000E+00  0.00000000E+00
  0.00000000E+00  0.00000000E+00  0.00000000E+00
  0.00000000E+00  0.00000000E+00  0.00000000E+00
  0.00000000E+00  0.00000000E+00  0.00000000E+00
  0.00000000E+00  0.00000000E+00  0.00000000E+00
  0.00000000E+00  0.00000000E+00  0.00000000E+00
