Al1As1   [HEX,HEX,hP4] (STD_PRIM doi:10.
   1.00000000000000     
     2.0212940428824742   -3.5011178712635829    0.0000000000000000
     2.0212940428824742    3.5011178712635829    0.0000000000000000
     0.0000000000000000    0.0000000000000000    6.6697953714971696
   2   2
Direct
  0.3333416144932114  0.6666583855067886  0.0011325427820139
  0.6666583855067886  0.3333416144932114  0.5011325427820139
  0.3333390528036056  0.6666609471963945  0.3748674572179838
  0.6666609471963945  0.3333390528036056  0.8748674572179838
 
  0.00000000E+00  0.00000000E+00  0.00000000E+00
  0.00000000E+00  0.00000000E+00  0.00000000E+00
  0.00000000E+00  0.00000000E+00  0.00000000E+00
  0.00000000E+00  0.00000000E+00  0.00000000E+00
