He2Ne1   [HEX,HEX,hP12] (STD_PRIM doi:10
   1.00000000000000     
     2.5427102468254161   -4.4041033364276263   -0.0000000000000000
     2.5424847285081862    4.4039731333664669   -0.0000000000000000
     0.0000000000000000    0.0000000000000000    8.2739613261326479
   8   4
Direct
  0.0000000000000000  0.0000000000000000  0.0000000000000000
  0.0000000000000000 -0.0000000000000000  0.5000000000000000
  0.6612940190922125  0.8306577665094047  0.2500000000000000
  0.1693637474171920  0.8306577665094047  0.2500000000000000
  0.1693555324608967  0.3387110649218005  0.2500000000000000
  0.3387059809077874  0.1693422334905954  0.7500000000000000
  0.8306362525828079  0.1693422334905954  0.7500000000000000
  0.8306444675391033  0.6612889350781995  0.7500000000000000
  0.6666663434336131  0.3333326868672187  0.0633308398912506
  0.3333336565663870  0.6666673131327812  0.5633308398912507
  0.3333336565663870  0.6666673131327812  0.9366691601087493
  0.6666663434336131  0.3333326868672187  0.4366691601087494
 
  0.00000000E+00  0.00000000E+00  0.00000000E+00
  0.00000000E+00  0.00000000E+00  0.00000000E+00
  0.00000000E+00  0.00000000E+00  0.00000000E+00
  0.00000000E+00  0.00000000E+00  0.00000000E+00
  0.00000000E+00  0.00000000E+00  0.00000000E+00
  0.00000000E+00  0.00000000E+00  0.00000000E+00
  0.00000000E+00  0.00000000E+00  0.00000000E+00
  0.00000000E+00  0.00000000E+00  0.00000000E+00
  0.00000000E+00  0.00000000E+00  0.00000000E+00
  0.00000000E+00  0.00000000E+00  0.00000000E+00
  0.00000000E+00  0.00000000E+00  0.00000000E+00
  0.00000000E+00  0.00000000E+00  0.00000000E+00
