Be5Fe1   [FCC,FCC,cF24] (STD_PRIM doi:10
   1.22474500000000     
    -0.0000000000000000    2.4387955710787330    2.4387955710787330
     2.4387955710787330    0.0000000000000000    2.4387955710787330
     2.4387955710787330    2.4387955710787330   -0.0000000000000000
   5   1
Direct
  0.7500000000000000  0.7500000000000000  0.7500000000000000
  0.3758054986503466  0.3758054986503466  0.3758054986503466
  0.3758054986503466  0.3758054986503466  0.8725835040489459
  0.8725835040489459  0.3758054986503466  0.3758054986503466
  0.3758054986503466  0.8725835040489459  0.3758054986503466
 -0.0000000000000000 -0.0000000000000000 -0.0000000000000000
 
  0.00000000E+00  0.00000000E+00  0.00000000E+00
  0.00000000E+00  0.00000000E+00  0.00000000E+00
  0.00000000E+00  0.00000000E+00  0.00000000E+00
  0.00000000E+00  0.00000000E+00  0.00000000E+00
  0.00000000E+00  0.00000000E+00  0.00000000E+00
  0.00000000E+00  0.00000000E+00  0.00000000E+00
