Cd1Ni4Tb1   [FCC,FCC,cF24] (STD_PRIM doi
   1.22474500000000     
     0.0000000000000000    2.8636527161761522    2.8636527161761522
     2.8636527161761522    0.0000000000000000    2.8636527161761522
     2.8636527161761522    2.8636527161761522    0.0000000000000000
   1   4   1
Direct
  0.0000000000000000  0.0000000000000000  0.0000000000000000
  0.1218435032054614  0.6260521655981748  0.6260521655981748
  0.6260521655981748  0.1218435032054614  0.6260521655981748
  0.6260521655981748  0.6260521655981748  0.1218435032054614
  0.6260521655981748  0.6260521655981748  0.6260521655981748
  0.2500000000000000  0.2500000000000000  0.2500000000000000
 
  0.00000000E+00  0.00000000E+00  0.00000000E+00
  0.00000000E+00  0.00000000E+00  0.00000000E+00
  0.00000000E+00  0.00000000E+00  0.00000000E+00
  0.00000000E+00  0.00000000E+00  0.00000000E+00
  0.00000000E+00  0.00000000E+00  0.00000000E+00
  0.00000000E+00  0.00000000E+00  0.00000000E+00
