U1   [ORCC,ORCC,oS4] (STD_PRIM doi:10.10
   1.00000000000000     
     1.4822852422690753   -2.9708651068646308    0.0000000000000000
     1.4822852422690753    2.9708651068646308   -0.0000000000000000
     0.0000000000000000    0.0000000000000000    5.1058826767952938
   2
Direct
  0.1063171842308133  0.8936828157691867  0.7500000000000000
  0.8936828157691867  0.1063171842308133  0.2500000000000000
 
  0.00000000E+00  0.00000000E+00  0.00000000E+00
  0.00000000E+00  0.00000000E+00  0.00000000E+00
