Ge13Ru4Tb3   [CUB,CUB,cP40] (STD_PRIM do
   1.00000000000000     
     9.0217110283683137    0.0000000000000000   -0.0000000000000000
     0.0000000000000000    9.0217110283683137   -0.0000000000000000
    -0.0000000000000000    0.0000000000000000    9.0217110283683137
  26   8   6
Direct
 -0.0000000000000000  0.0000000000000000 -0.0000000000000000
  0.5000000000000000  0.5000000000000000  0.5000000000000000
 -0.0000000000000000  0.1479316417252614  0.3031335574806156
 -0.0000000000000000  0.8520683582747386  0.3031335574806156
  0.0000000000000000  0.1479316417252614  0.6968664425193843
  0.0000000000000000  0.8520683582747386  0.6968664425193843
  0.3031335574806156  0.0000000000000000  0.1479316417252614
  0.3031335574806156  0.0000000000000000  0.8520683582747386
  0.6968664425193843 -0.0000000000000000  0.1479316417252614
  0.6968664425193843 -0.0000000000000000  0.8520683582747386
  0.1479316417252614  0.3031335574806156  0.0000000000000000
  0.8520683582747386  0.3031335574806156 -0.0000000000000000
  0.1479316417252614  0.6968664425193843  0.0000000000000000
  0.8520683582747386  0.6968664425193843 -0.0000000000000000
  0.6479316417252614  0.5000000000000000  0.1968664425193844
  0.3520683582747385  0.5000000000000000  0.1968664425193844
  0.6479316417252614  0.5000000000000000  0.8031335574806157
  0.3520683582747385  0.5000000000000000  0.8031335574806157
  0.5000000000000000  0.8031335574806157  0.3520683582747385
  0.5000000000000000  0.8031335574806157  0.6479316417252614
  0.5000000000000000  0.1968664425193844  0.3520683582747385
  0.5000000000000000  0.1968664425193844  0.6479316417252614
  0.8031335574806157  0.6479316417252614  0.5000000000000000
  0.8031335574806157  0.3520683582747385  0.5000000000000000
  0.1968664425193844  0.6479316417252614  0.5000000000000000
  0.1968664425193844  0.3520683582747385  0.5000000000000000
  0.2500000000000000  0.2500000000000000  0.2500000000000000
  0.7500000000000000  0.7500000000000000  0.2500000000000000
  0.7500000000000000  0.2500000000000000  0.7500000000000000
  0.2500000000000000  0.7500000000000000  0.7500000000000000
  0.7500000000000000  0.7500000000000000  0.7500000000000000
  0.2500000000000000  0.2500000000000000  0.7500000000000000
  0.2500000000000000  0.7500000000000000  0.2500000000000000
  0.7500000000000000  0.2500000000000000  0.2500000000000000
  0.2500000000000000 -0.0000000000000000  0.5000000000000000
  0.7500000000000000  0.0000000000000000  0.5000000000000000
  0.5000000000000000  0.2500000000000000 -0.0000000000000000
  0.5000000000000000  0.7500000000000000 -0.0000000000000000
  0.0000000000000000  0.5000000000000000  0.2500000000000000
 -0.0000000000000000  0.5000000000000000  0.7500000000000000
 
  0.00000000E+00  0.00000000E+00  0.00000000E+00
  0.00000000E+00  0.00000000E+00  0.00000000E+00
  0.00000000E+00  0.00000000E+00  0.00000000E+00
  0.00000000E+00  0.00000000E+00  0.00000000E+00
  0.00000000E+00  0.00000000E+00  0.00000000E+00
  0.00000000E+00  0.00000000E+00  0.00000000E+00
  0.00000000E+00  0.00000000E+00  0.00000000E+00
  0.00000000E+00  0.00000000E+00  0.00000000E+00
  0.00000000E+00  0.00000000E+00  0.00000000E+00
  0.00000000E+00  0.00000000E+00  0.00000000E+00
  0.00000000E+00  0.00000000E+00  0.00000000E+00
  0.00000000E+00  0.00000000E+00  0.00000000E+00
  0.00000000E+00  0.00000000E+00  0.00000000E+00
  0.00000000E+00  0.00000000E+00  0.00000000E+00
  0.00000000E+00  0.00000000E+00  0.00000000E+00
  0.00000000E+00  0.00000000E+00  0.00000000E+00
  0.00000000E+00  0.00000000E+00  0.00000000E+00
  0.00000000E+00  0.00000000E+00  0.00000000E+00
  0.00000000E+00  0.00000000E+00  0.00000000E+00
  0.00000000E+00  0.00000000E+00  0.00000000E+00
  0.00000000E+00  0.00000000E+00  0.00000000E+00
  0.00000000E+00  0.00000000E+00  0.00000000E+00
  0.00000000E+00  0.00000000E+00  0.00000000E+00
  0.00000000E+00  0.00000000E+00  0.00000000E+00
  0.00000000E+00  0.00000000E+00  0.00000000E+00
  0.00000000E+00  0.00000000E+00  0.00000000E+00
  0.00000000E+00  0.00000000E+00  0.00000000E+00
  0.00000000E+00  0.00000000E+00  0.00000000E+00
  0.00000000E+00  0.00000000E+00  0.00000000E+00
  0.00000000E+00  0.00000000E+00  0.00000000E+00
  0.00000000E+00  0.00000000E+00  0.00000000E+00
  0.00000000E+00  0.00000000E+00  0.00000000E+00
  0.00000000E+00  0.00000000E+00  0.00000000E+00
  0.00000000E+00  0.00000000E+00  0.00000000E+00
  0.00000000E+00  0.00000000E+00  0.00000000E+00
  0.00000000E+00  0.00000000E+00  0.00000000E+00
  0.00000000E+00  0.00000000E+00  0.00000000E+00
  0.00000000E+00  0.00000000E+00  0.00000000E+00
  0.00000000E+00  0.00000000E+00  0.00000000E+00
  0.00000000E+00  0.00000000E+00  0.00000000E+00
