N1Tc3   [HEX,HEX,hP4] (STD_PRIM doi:10.1
   1.00000000000000     
     1.4130949159711348   -2.4474597450729276    0.0000000000000000
     1.4130949159711348    2.4474597450729276    0.0000000000000000
     0.0000000000000000    0.0000000000000000    7.0940934525531913
   1   3
Direct
  0.6666733475022824  0.3333266524977176  0.0000000000000000
  0.6666838143894367  0.3333161856105633  0.5000000000000000
  0.3333214190541440  0.6666785809458560  0.1961700707454312
  0.3333214190541440  0.6666785809458560  0.8038299292545688
 
  0.00000000E+00  0.00000000E+00  0.00000000E+00
  0.00000000E+00  0.00000000E+00  0.00000000E+00
  0.00000000E+00  0.00000000E+00  0.00000000E+00
  0.00000000E+00  0.00000000E+00  0.00000000E+00
