Ge3Ta5   [BCT,BCT2,tI32] (STD_PRIM doi:1
   1.00000000000000     
    -3.3557273322475032    3.3557273322475032    6.0885504965895683
     3.3557273322475032   -3.3557273322475032    6.0885504965895683
     3.3557273322475032    3.3557273322475032   -6.0885504965895683
   6  10
Direct
  0.2500000000000000  0.2500000000000000 -0.0000000000000000
  0.7500000000000000  0.7500000000000000  0.0000000000000000
  0.6364726740206184  0.8635273259793816  0.5000000000000000
  0.3635273259793816  0.1364726740206184  0.5000000000000000
  0.8635273259793816  0.3635273259793816  0.2270546519587633
  0.1364726740206184  0.6364726740206184  0.7729453480412367
 -0.0000000000000000 -0.0000000000000000 -0.0000000000000000
  0.5000000000000000  0.5000000000000000 -0.0000000000000000
  0.9942172026870895  0.8148152612547135  0.5000000000000000
  0.3148152612547135  0.4942172026870895  0.5000000000000000
  0.8148152612547135  0.3148152612547135  0.8205980585676240
  0.4942172026870895  0.9942172026870895  0.1794019414323759
  0.5057827973129105  0.0057827973129105  0.8205980585676240
  0.1851847387452865  0.6851847387452865  0.1794019414323759
  0.6851847387452865  0.5057827973129105  0.5000000000000000
  0.0057827973129105  0.1851847387452865  0.5000000000000000
 
  0.00000000E+00  0.00000000E+00  0.00000000E+00
  0.00000000E+00  0.00000000E+00  0.00000000E+00
  0.00000000E+00  0.00000000E+00  0.00000000E+00
  0.00000000E+00  0.00000000E+00  0.00000000E+00
  0.00000000E+00  0.00000000E+00  0.00000000E+00
  0.00000000E+00  0.00000000E+00  0.00000000E+00
  0.00000000E+00  0.00000000E+00  0.00000000E+00
  0.00000000E+00  0.00000000E+00  0.00000000E+00
  0.00000000E+00  0.00000000E+00  0.00000000E+00
  0.00000000E+00  0.00000000E+00  0.00000000E+00
  0.00000000E+00  0.00000000E+00  0.00000000E+00
  0.00000000E+00  0.00000000E+00  0.00000000E+00
  0.00000000E+00  0.00000000E+00  0.00000000E+00
  0.00000000E+00  0.00000000E+00  0.00000000E+00
  0.00000000E+00  0.00000000E+00  0.00000000E+00
  0.00000000E+00  0.00000000E+00  0.00000000E+00
