Ge1Ho1Ru1   [ORC,ORC,oP12] (STD_PRIM doi
   1.00000000000000     
     4.4219987507216079    0.0000000000000000    0.0000000000000000
     0.0000000000000000    7.0190961513433958    0.0000000000000000
     0.0000000000000000    0.0000000000000000    7.2096672464014659
   4   4   4
Direct
  0.2500000000000000  0.2038160053144737  0.8938211946157225
  0.7500000000000000  0.2961839946855263  0.3938211946157225
  0.7500000000000000  0.7961839946855263  0.1061788053842775
  0.2500000000000000  0.7038160053144737  0.6061788053842775
  0.2500000000000000  0.0141988672415646  0.3070691860807220
  0.7500000000000000  0.4858011327584354  0.8070691860807219
  0.7500000000000000  0.9858011327584354  0.6929308139192781
  0.2500000000000000  0.5141988672415646  0.1929308139192781
  0.2500000000000000  0.8456040432364191  0.9373875657876740
  0.7500000000000000  0.6543959567635809  0.4373875657876740
  0.7500000000000000  0.1543959567635808  0.0626124342123260
  0.2500000000000000  0.3456040432364191  0.5626124342123260
 
  0.00000000E+00  0.00000000E+00  0.00000000E+00
  0.00000000E+00  0.00000000E+00  0.00000000E+00
  0.00000000E+00  0.00000000E+00  0.00000000E+00
  0.00000000E+00  0.00000000E+00  0.00000000E+00
  0.00000000E+00  0.00000000E+00  0.00000000E+00
  0.00000000E+00  0.00000000E+00  0.00000000E+00
  0.00000000E+00  0.00000000E+00  0.00000000E+00
  0.00000000E+00  0.00000000E+00  0.00000000E+00
  0.00000000E+00  0.00000000E+00  0.00000000E+00
  0.00000000E+00  0.00000000E+00  0.00000000E+00
  0.00000000E+00  0.00000000E+00  0.00000000E+00
  0.00000000E+00  0.00000000E+00  0.00000000E+00
