Rb2S1 #194 - (Rb2S1_ICSD_261443) - Rb2S1
    1.000000000000000     
     2.7865593590401749   -4.8264576767960667    0.0000000000000000
     2.7865593590401749    4.8264576767960667    0.0000000000000000
     0.0000000000000000    0.0000000000000000    7.6878025691101923
   4   2
Direct
  0.0000000000000000  0.0000000000000000  0.0000000000000000
  0.0000000000000000  0.0000000000000000  0.5000000000000000
  0.3333335696604180  0.6666664303395820  0.7500000000000000
  0.6666664303395820  0.3333335696604180  0.2500000000000000
  0.3333327563770183  0.6666672436229817  0.2500000000000000
  0.6666672436229817  0.3333327563770183  0.7500000000000000
 
  0.00000000E+00  0.00000000E+00  0.00000000E+00
  0.00000000E+00  0.00000000E+00  0.00000000E+00
  0.00000000E+00  0.00000000E+00  0.00000000E+00
  0.00000000E+00  0.00000000E+00  0.00000000E+00
  0.00000000E+00  0.00000000E+00  0.00000000E+00
  0.00000000E+00  0.00000000E+00  0.00000000E+00
