Mn1Nb1P1   [ORC,ORC,oP12] (STD_PRIM doi:
   1.00000000000000     
     3.6863603901830806   -0.0000000000000000    0.0000000000000000
    -0.0000000000000000    6.1403968848352495    0.0000000000000000
     0.0000000000000000    0.0000000000000000    6.9480091942415356
   4   4   4
Direct
  0.2500000000000000  0.1497864019552721  0.4370131814201842
  0.7500000000000000  0.3502135980447281  0.9370131814201913
  0.7500000000000000  0.8502135980447278  0.5629868185798087
  0.2500000000000000  0.6497864019552722  0.0629868185798086
  0.2500000000000000  0.0129353407972191  0.8174303399110622
  0.7500000000000000  0.4870646592027809  0.3174303399110621
  0.7500000000000000  0.9870646592027809  0.1825696600889380
  0.2500000000000000  0.5129353407972191  0.6825696600889378
  0.2500000000000000  0.7839474023156242  0.3830008872362990
  0.7500000000000000  0.7160525976843758  0.8830008872362992
  0.7500000000000000  0.2160525976843900  0.6169991127637008
  0.2500000000000000  0.2839474023156242  0.1169991127637010
 
  0.00000000E+00  0.00000000E+00  0.00000000E+00
  0.00000000E+00  0.00000000E+00  0.00000000E+00
  0.00000000E+00  0.00000000E+00  0.00000000E+00
  0.00000000E+00  0.00000000E+00  0.00000000E+00
  0.00000000E+00  0.00000000E+00  0.00000000E+00
  0.00000000E+00  0.00000000E+00  0.00000000E+00
  0.00000000E+00  0.00000000E+00  0.00000000E+00
  0.00000000E+00  0.00000000E+00  0.00000000E+00
  0.00000000E+00  0.00000000E+00  0.00000000E+00
  0.00000000E+00  0.00000000E+00  0.00000000E+00
  0.00000000E+00  0.00000000E+00  0.00000000E+00
  0.00000000E+00  0.00000000E+00  0.00000000E+00
