C3Ce2   [BCC,BCC,cI40] (STD_PRIM doi:10.
   1.00000000000000     
    -4.1915443818983915    4.1915443818983915    4.1915443818983915
     4.1915443818983915   -4.1915443818983915    4.1915443818983915
     4.1915443818983915    4.1915443818983915   -4.1915443818983915
  12   8
Direct
  0.2923888734901509  0.2500000000000000  0.5423888734901510
  0.2076111265098491  0.7500000000000000  0.9576111265098490
  0.5423888734901510  0.2923888734901509  0.2500000000000000
  0.9576111265098490  0.2076111265098491  0.7500000000000000
  0.2500000000000000  0.5423888734901510  0.2923888734901509
  0.7500000000000000  0.9576111265098490  0.2076111265098491
  0.7923888734901510  0.0423888734901509  0.7500000000000000
  0.7076111265098490  0.4576111265098491  0.2500000000000000
  0.0423888734901509  0.7500000000000000  0.7923888734901510
  0.4576111265098491  0.2500000000000000  0.7076111265098490
  0.7500000000000000  0.7923888734901510  0.0423888734901509
  0.2500000000000000  0.7076111265098490  0.4576111265098491
  0.0958000680847557  0.0958000680847557  0.0958000680847557
  0.4041999319152443  0.5000000000000000  0.0000000000000000
  0.5000000000000000  0.0000000000000000  0.4041999319152443
  0.0000000000000000  0.4041999319152443  0.5000000000000000
  0.5958000680847556  0.5958000680847556  0.5958000680847556
  0.9041999319152444  0.5000000000000000  0.0000000000000000
  0.0000000000000000  0.9041999319152444  0.5000000000000000
  0.5000000000000000  0.0000000000000000  0.9041999319152444
 
  0.00000000E+00  0.00000000E+00  0.00000000E+00
  0.00000000E+00  0.00000000E+00  0.00000000E+00
  0.00000000E+00  0.00000000E+00  0.00000000E+00
  0.00000000E+00  0.00000000E+00  0.00000000E+00
  0.00000000E+00  0.00000000E+00  0.00000000E+00
  0.00000000E+00  0.00000000E+00  0.00000000E+00
  0.00000000E+00  0.00000000E+00  0.00000000E+00
  0.00000000E+00  0.00000000E+00  0.00000000E+00
  0.00000000E+00  0.00000000E+00  0.00000000E+00
  0.00000000E+00  0.00000000E+00  0.00000000E+00
  0.00000000E+00  0.00000000E+00  0.00000000E+00
  0.00000000E+00  0.00000000E+00  0.00000000E+00
  0.00000000E+00  0.00000000E+00  0.00000000E+00
  0.00000000E+00  0.00000000E+00  0.00000000E+00
  0.00000000E+00  0.00000000E+00  0.00000000E+00
  0.00000000E+00  0.00000000E+00  0.00000000E+00
  0.00000000E+00  0.00000000E+00  0.00000000E+00
  0.00000000E+00  0.00000000E+00  0.00000000E+00
  0.00000000E+00  0.00000000E+00  0.00000000E+00
  0.00000000E+00  0.00000000E+00  0.00000000E+00
