Ho1Pd1Sn1   [ORC,ORC,oP12] (STD_PRIM doi
   1.00000000000000     
     4.6653295227798468    0.0000000000000000    0.0000000000000000
     0.0000000000000000    7.1943822070281307    0.0000000000000000
     0.0000000000000000    0.0000000000000000    7.9884323009064344
   4   4   4
Direct
  0.2500000000000000  0.9906013907606391  0.2916923525353671
  0.7500000000000000  0.5093986092393609  0.7916923525353671
  0.7500000000000000  0.0093986092393609  0.7083076474646329
  0.2500000000000000  0.4906013907606391  0.2083076474646328
  0.2500000000000000  0.2059213563012408  0.9171162469753624
  0.7500000000000000  0.2940786436987592  0.4171162469753624
  0.7500000000000000  0.7940786436987591  0.0828837530246376
  0.2500000000000000  0.7059213563012409  0.5828837530246376
  0.2500000000000000  0.3020929886113710  0.5876600039183650
  0.7500000000000000  0.1979070113886290  0.0876600039183650
  0.7500000000000000  0.6979070113886291  0.4123399960816350
  0.2500000000000000  0.8020929886113709  0.9123399960816350
 
  0.00000000E+00  0.00000000E+00  0.00000000E+00
  0.00000000E+00  0.00000000E+00  0.00000000E+00
  0.00000000E+00  0.00000000E+00  0.00000000E+00
  0.00000000E+00  0.00000000E+00  0.00000000E+00
  0.00000000E+00  0.00000000E+00  0.00000000E+00
  0.00000000E+00  0.00000000E+00  0.00000000E+00
  0.00000000E+00  0.00000000E+00  0.00000000E+00
  0.00000000E+00  0.00000000E+00  0.00000000E+00
  0.00000000E+00  0.00000000E+00  0.00000000E+00
  0.00000000E+00  0.00000000E+00  0.00000000E+00
  0.00000000E+00  0.00000000E+00  0.00000000E+00
  0.00000000E+00  0.00000000E+00  0.00000000E+00
