Ho1Rh2Si2   [BCT,BCT2,tI10] (STD_PRIM do
   1.00000000000000     
    -2.0189310287359450    2.0189310287359450    4.9586583454885034
     2.0189310287359450   -2.0189310287359450    4.9586583454885034
     2.0189310287359450    2.0189310287359450   -4.9586583454885034
   1   2   2
Direct
 -0.0000000000000000  0.0000000000000000  0.0000000000000000
  0.7500000000000000  0.2500000000000000  0.5000000000000000
  0.2500000000000000  0.7500000000000000  0.5000000000000000
  0.3784792032584960  0.3784792032584960 -0.0000000000000000
  0.6215207967415041  0.6215207967415041 -0.0000000000000000
 
  0.00000000E+00  0.00000000E+00  0.00000000E+00
  0.00000000E+00  0.00000000E+00  0.00000000E+00
  0.00000000E+00  0.00000000E+00  0.00000000E+00
  0.00000000E+00  0.00000000E+00  0.00000000E+00
  0.00000000E+00  0.00000000E+00  0.00000000E+00
