Er1Ni1P1   [HEX,HEX,hP12] (STD_PRIM doi:
   1.00000000000000     
     1.9424105214993657   -3.3642982742024259    0.0000000000000000
     1.9424105214993657    3.3642982742024259    0.0000000000000000
     0.0000000000000000    0.0000000000000000   14.9792925282881892
   4   4   4
Direct
 -0.0000000000000000 -0.0000000000000000  0.0000000000000000
  0.0000000000000000  0.0000000000000000  0.5000000000000000
 -0.0000031635659386  0.0000031635659387  0.2500000000000000
  0.0000031635659387 -0.0000031635659386  0.7500000000000000
  0.3333526025498337  0.6666473974501662  0.1278928699831979
  0.6666473974501662  0.3333526025498337  0.6278928699831979
  0.6666473974501662  0.3333526025498337  0.8721071300168021
  0.3333526025498337  0.6666473974501662  0.3721071300168021
  0.3333409960176512  0.6666590039823489  0.6225938027185792
  0.6666590039823489  0.3333409960176512  0.1225938027185792
  0.6666590039823489  0.3333409960176512  0.3774061972814208
  0.3333409960176512  0.6666590039823489  0.8774061972814208
 
  0.00000000E+00  0.00000000E+00  0.00000000E+00
  0.00000000E+00  0.00000000E+00  0.00000000E+00
  0.00000000E+00  0.00000000E+00  0.00000000E+00
  0.00000000E+00  0.00000000E+00  0.00000000E+00
  0.00000000E+00  0.00000000E+00  0.00000000E+00
  0.00000000E+00  0.00000000E+00  0.00000000E+00
  0.00000000E+00  0.00000000E+00  0.00000000E+00
  0.00000000E+00  0.00000000E+00  0.00000000E+00
  0.00000000E+00  0.00000000E+00  0.00000000E+00
  0.00000000E+00  0.00000000E+00  0.00000000E+00
  0.00000000E+00  0.00000000E+00  0.00000000E+00
  0.00000000E+00  0.00000000E+00  0.00000000E+00
