Dy1   [ORCC,ORCC,oS8] (STD_PRIM doi:10.1
   1.00000000000000     
     3.5373329314935518   -5.0010569949041432    0.0000000000000000
     3.5373329314935518    5.0010569949041432    0.0000000000000000
     0.0000000000000000    0.0000000000000000    3.5397026325969789
   4
Direct
  0.2501134064396914  0.7498865935603085 -0.0000000000000000
  0.7498865935603085  0.2501134064396914  0.0000000000000000
  0.2498854048293535  0.2498854048293535  0.5000000000000000
  0.7501145951706465  0.7501145951706465  0.5000000000000000
 
  0.00000000E+00  0.00000000E+00  0.00000000E+00
  0.00000000E+00  0.00000000E+00  0.00000000E+00
  0.00000000E+00  0.00000000E+00  0.00000000E+00
  0.00000000E+00  0.00000000E+00  0.00000000E+00
