La1Rh1Sn2   [ORCC,ORCC,oS32] (STD_PRIM d
   1.00000000000000     
     2.3594669091126881   -8.6963211179427606    0.0000000000000000
     2.3594669091126881    8.6963211179427606    0.0000000000000000
     0.0000000000000000    0.0000000000000000    9.8216882615900616
   4   4   8
Direct
  0.7043931156401533  0.2956068843598467  0.7500000000000000
  0.2956068843598467  0.7043931156401533  0.2500000000000000
  0.5000000000000000  0.5000000000000000  0.0000000000000000
  0.5000000000000000  0.5000000000000000  0.5000000000000000
  0.8525680401285450  0.1474319598714550  0.4962570976889422
  0.1474319598714550  0.8525680401285450  0.9962570976889421
  0.8525680401285450  0.1474319598714550  0.0037429023110579
  0.1474319598714550  0.8525680401285450  0.5037429023110579
  0.6973950010519218  0.3026049989480782  0.4112218324896788
  0.3026049989480782  0.6973950010519218  0.9112218324896788
  0.6973950010519218  0.3026049989480782  0.0887781675103212
  0.3026049989480782  0.6973950010519218  0.5887781675103212
  0.9085828278751762  0.0914171721248238  0.7500000000000000
  0.0914171721248238  0.9085828278751762  0.2500000000000000
  0.0746035646754307  0.9253964353245693  0.7500000000000000
  0.9253964353245693  0.0746035646754307  0.2500000000000000
 
  0.00000000E+00  0.00000000E+00  0.00000000E+00
  0.00000000E+00  0.00000000E+00  0.00000000E+00
  0.00000000E+00  0.00000000E+00  0.00000000E+00
  0.00000000E+00  0.00000000E+00  0.00000000E+00
  0.00000000E+00  0.00000000E+00  0.00000000E+00
  0.00000000E+00  0.00000000E+00  0.00000000E+00
  0.00000000E+00  0.00000000E+00  0.00000000E+00
  0.00000000E+00  0.00000000E+00  0.00000000E+00
  0.00000000E+00  0.00000000E+00  0.00000000E+00
  0.00000000E+00  0.00000000E+00  0.00000000E+00
  0.00000000E+00  0.00000000E+00  0.00000000E+00
  0.00000000E+00  0.00000000E+00  0.00000000E+00
  0.00000000E+00  0.00000000E+00  0.00000000E+00
  0.00000000E+00  0.00000000E+00  0.00000000E+00
  0.00000000E+00  0.00000000E+00  0.00000000E+00
  0.00000000E+00  0.00000000E+00  0.00000000E+00
