Mg3Ru2   [CUB,CUB,cP20] (STD_PRIM doi:10
   1.00000000000000     
     6.9393754068148263   -0.0000000000000000    0.0000000000000000
     0.0000000000000000    6.9393754068148263   -0.0000000000000000
    -0.0000000000000000    0.0000000000000000    6.9393754068148263
  12   8
Direct
  0.1250000000000000  0.2051902054081225  0.4551902054081225
  0.3750000000000000  0.7948097945918774  0.9551902054081226
  0.8750000000000000  0.7051902054081226  0.0448097945918775
  0.6250000000000000  0.2948097945918775  0.5448097945918774
  0.4551902054081225  0.1250000000000000  0.2051902054081225
  0.9551902054081226  0.3750000000000000  0.7948097945918774
  0.0448097945918775  0.8750000000000000  0.7051902054081226
  0.5448097945918774  0.6250000000000000  0.2948097945918775
  0.2051902054081225  0.4551902054081225  0.1250000000000000
  0.7948097945918774  0.9551902054081226  0.3750000000000000
  0.7051902054081226  0.0448097945918775  0.8750000000000000
  0.2948097945918775  0.5448097945918774  0.6250000000000000
  0.0741982743549068  0.0741982743549068  0.0741982743549068
  0.4258017256450932  0.9258017256450932  0.5741982743549068
  0.9258017256450932  0.5741982743549068  0.4258017256450932
  0.5741982743549068  0.4258017256450932  0.9258017256450932
  0.8241982743549068  0.3241982743549068  0.1758017256450932
  0.6758017256450932  0.6758017256450932  0.6758017256450932
  0.3241982743549068  0.1758017256450932  0.8241982743549068
  0.1758017256450932  0.8241982743549068  0.3241982743549068
 
  0.00000000E+00  0.00000000E+00  0.00000000E+00
  0.00000000E+00  0.00000000E+00  0.00000000E+00
  0.00000000E+00  0.00000000E+00  0.00000000E+00
  0.00000000E+00  0.00000000E+00  0.00000000E+00
  0.00000000E+00  0.00000000E+00  0.00000000E+00
  0.00000000E+00  0.00000000E+00  0.00000000E+00
  0.00000000E+00  0.00000000E+00  0.00000000E+00
  0.00000000E+00  0.00000000E+00  0.00000000E+00
  0.00000000E+00  0.00000000E+00  0.00000000E+00
  0.00000000E+00  0.00000000E+00  0.00000000E+00
  0.00000000E+00  0.00000000E+00  0.00000000E+00
  0.00000000E+00  0.00000000E+00  0.00000000E+00
  0.00000000E+00  0.00000000E+00  0.00000000E+00
  0.00000000E+00  0.00000000E+00  0.00000000E+00
  0.00000000E+00  0.00000000E+00  0.00000000E+00
  0.00000000E+00  0.00000000E+00  0.00000000E+00
  0.00000000E+00  0.00000000E+00  0.00000000E+00
  0.00000000E+00  0.00000000E+00  0.00000000E+00
  0.00000000E+00  0.00000000E+00  0.00000000E+00
  0.00000000E+00  0.00000000E+00  0.00000000E+00
