Cu4Hf3Si2   [HEX,HEX,hP9] (STD_PRIM doi:
   1.00000000000000     
     3.1561484812056326   -5.4666095256795044    0.0000000000000000
     3.1560610332530299    5.4665590375805282    0.0000000000000000
     0.0000000000000000    0.0000000000000000    3.9645348800285634
   4   3   2
Direct
  0.0000004699814866 -0.0000000000000000  0.5000000000000000
  0.0000096782154687  0.7521382429963844  0.0000000000000000
  0.2478714352190843  0.2478617570036155  0.0000000000000000
  0.7521219077926176 -0.0000000000000000  0.0000000000000000
  0.9999952130719093  0.4154188139289974  0.5000000000000000
  0.5845763991429119  0.5845811860710026  0.5000000000000000
  0.4154286104055281  0.0000000000000000  0.5000000000000000
  0.6666804143839449  0.3333645425969032  0.0000000000000000
  0.3333158717870416  0.6666354574030967  0.0000000000000000
 
  0.00000000E+00  0.00000000E+00  0.00000000E+00
  0.00000000E+00  0.00000000E+00  0.00000000E+00
  0.00000000E+00  0.00000000E+00  0.00000000E+00
  0.00000000E+00  0.00000000E+00  0.00000000E+00
  0.00000000E+00  0.00000000E+00  0.00000000E+00
  0.00000000E+00  0.00000000E+00  0.00000000E+00
  0.00000000E+00  0.00000000E+00  0.00000000E+00
  0.00000000E+00  0.00000000E+00  0.00000000E+00
  0.00000000E+00  0.00000000E+00  0.00000000E+00
