Pd4Se1   [TET,TET,tP10] (STD_PRIM doi:10
   1.00000000000000     
     5.2977140849487734    0.0000000000000000    0.0000000000000000
     0.0000000000000000    5.2977140849487734   -0.0000000000000000
     0.0000000000000000    0.0000000000000000    5.7188018704815287
   8   2
Direct
  0.3699391524099894  0.2306190154464379  0.1564396614911247
  0.6300608475900106  0.7693809845535621  0.1564396614911247
  0.2306190154464379  0.6300608475900106  0.8435603385088752
  0.7693809845535621  0.3699391524099894  0.8435603385088752
  0.1300608475900106  0.7306190154464379  0.3435603385088754
  0.8699391524099894  0.2693809845535621  0.3435603385088754
  0.2693809845535621  0.1300608475900106  0.6564396614911248
  0.7306190154464379  0.8699391524099894  0.6564396614911248
 -0.0000000000000000  0.0000000000000000  0.0000000000000000
  0.5000000000000000  0.5000000000000000  0.5000000000000000
 
  0.00000000E+00  0.00000000E+00  0.00000000E+00
  0.00000000E+00  0.00000000E+00  0.00000000E+00
  0.00000000E+00  0.00000000E+00  0.00000000E+00
  0.00000000E+00  0.00000000E+00  0.00000000E+00
  0.00000000E+00  0.00000000E+00  0.00000000E+00
  0.00000000E+00  0.00000000E+00  0.00000000E+00
  0.00000000E+00  0.00000000E+00  0.00000000E+00
  0.00000000E+00  0.00000000E+00  0.00000000E+00
  0.00000000E+00  0.00000000E+00  0.00000000E+00
  0.00000000E+00  0.00000000E+00  0.00000000E+00
