Cr2O4Zn1   [FCC,FCC,cF56] (STD_PRIM doi:
   1.22502800000000     
    -0.0000000000000000    3.4306430592151247    3.4430061735901991
     3.4306430592151247    0.0000000000000000    3.4430061735901991
     3.4306430592151247    3.4306430592151247    0.0000000000000000
   4   8   2
Direct
  0.5000000000000000  0.5000000000000000  0.5000000000000000
 -0.0000000000000000  0.0000000000000000  0.5000000000000000
  0.0000000000000000  0.5000000000000000 -0.0000000000000000
  0.0000000000000000  0.5000000000000000  0.5000000000000000
  0.2208603477331773  0.2586840485021933  0.2602278018823112
  0.7586840485021933  0.7208603477331774  0.2602278018823112
  0.2397721981176889  0.7397721981176888  0.2791396522668227
  0.2397721981176889  0.7397721981176888  0.7413159514978067
  0.2413159514978067  0.2791396522668227  0.7397721981176888
  0.7791396522668226  0.7413159514978067  0.7397721981176888
  0.7602278018823112  0.2602278018823112  0.7208603477331774
  0.7602278018823112  0.2602278018823112  0.2586840485021933
  0.3750000000000000  0.8750000000000000  0.8750000000000000
  0.6250000000000000  0.1250000000000000  0.1250000000000000
 
  0.00000000E+00  0.00000000E+00  0.00000000E+00
  0.00000000E+00  0.00000000E+00  0.00000000E+00
  0.00000000E+00  0.00000000E+00  0.00000000E+00
  0.00000000E+00  0.00000000E+00  0.00000000E+00
  0.00000000E+00  0.00000000E+00  0.00000000E+00
  0.00000000E+00  0.00000000E+00  0.00000000E+00
  0.00000000E+00  0.00000000E+00  0.00000000E+00
  0.00000000E+00  0.00000000E+00  0.00000000E+00
  0.00000000E+00  0.00000000E+00  0.00000000E+00
  0.00000000E+00  0.00000000E+00  0.00000000E+00
  0.00000000E+00  0.00000000E+00  0.00000000E+00
  0.00000000E+00  0.00000000E+00  0.00000000E+00
  0.00000000E+00  0.00000000E+00  0.00000000E+00
  0.00000000E+00  0.00000000E+00  0.00000000E+00
