In1Y2   [HEX,HEX,hP6] (STD_PRIM doi:10.1
   1.00000000000000     
     2.7011626319471658   -4.6782489945511276    0.0000000000000000
     2.7011626319471658    4.6782489945511276    0.0000000000000000
     0.0000000000000000    0.0000000000000000    6.7564642920173617
   2   4
Direct
  0.3333197805671190  0.6666802194328810  0.2500000000000000
  0.6666802194328810  0.3333197805671190  0.7500000000000000
 -0.0000000000000000 -0.0000000000000000  0.0000000000000000
  0.0000000000000000  0.0000000000000000  0.5000000000000000
  0.3333218138958359  0.6666781861041641  0.7500000000000000
  0.6666781861041641  0.3333218138958359  0.2500000000000000
 
  0.00000000E+00  0.00000000E+00  0.00000000E+00
  0.00000000E+00  0.00000000E+00  0.00000000E+00
  0.00000000E+00  0.00000000E+00  0.00000000E+00
  0.00000000E+00  0.00000000E+00  0.00000000E+00
  0.00000000E+00  0.00000000E+00  0.00000000E+00
  0.00000000E+00  0.00000000E+00  0.00000000E+00
