Co1Sb3   [BCC,BCC,cI32] (STD_PRIM doi:10
   1.00000000000000     
    -4.5438358548757947    4.5438358548757947    4.5438358548757947
     4.5438358548757947   -4.5438358548757947    4.5438358548757947
     4.5438358548757947    4.5438358548757947   -4.5438358548757947
   4  12
Direct
  0.0000000000000000  0.5000000000000000  0.0000000000000000
  0.5000000000000000 -0.0000000000000000 -0.0000000000000000
  0.5000000000000000  0.5000000000000000  0.5000000000000000
  0.0000000000000000  0.0000000000000000  0.5000000000000000
  0.1747729333703851  0.8408295104406697  0.3339434229297155
  0.5068860875109541  0.8408295104406697  0.6660565770702844
  0.4931139124890459  0.1591704895593304  0.3339434229297155
  0.8252270666296149  0.1591704895593304  0.6660565770702844
  0.6660565770702844  0.5068860875109541  0.8408295104406697
  0.3339434229297155  0.1747729333703851  0.8408295104406697
  0.6660565770702844  0.8252270666296149  0.1591704895593304
  0.3339434229297155  0.4931139124890459  0.1591704895593304
  0.1591704895593304  0.6660565770702844  0.8252270666296149
  0.1591704895593304  0.3339434229297155  0.4931139124890459
  0.8408295104406697  0.6660565770702844  0.5068860875109541
  0.8408295104406697  0.3339434229297155  0.1747729333703851
 
  0.00000000E+00  0.00000000E+00  0.00000000E+00
  0.00000000E+00  0.00000000E+00  0.00000000E+00
  0.00000000E+00  0.00000000E+00  0.00000000E+00
  0.00000000E+00  0.00000000E+00  0.00000000E+00
  0.00000000E+00  0.00000000E+00  0.00000000E+00
  0.00000000E+00  0.00000000E+00  0.00000000E+00
  0.00000000E+00  0.00000000E+00  0.00000000E+00
  0.00000000E+00  0.00000000E+00  0.00000000E+00
  0.00000000E+00  0.00000000E+00  0.00000000E+00
  0.00000000E+00  0.00000000E+00  0.00000000E+00
  0.00000000E+00  0.00000000E+00  0.00000000E+00
  0.00000000E+00  0.00000000E+00  0.00000000E+00
  0.00000000E+00  0.00000000E+00  0.00000000E+00
  0.00000000E+00  0.00000000E+00  0.00000000E+00
  0.00000000E+00  0.00000000E+00  0.00000000E+00
  0.00000000E+00  0.00000000E+00  0.00000000E+00
