F2Kr1   [BCT,BCT2,tI6] (STD_PRIM doi:10.
   1.00000000000000     
    -2.2174666145155952    2.2174666145155952    3.3334420243960299
     2.2174666145155952   -2.2174666145155952    3.3334420243960299
     2.2174666145155952    2.2174666145155952   -3.3334420243960299
   2   1
Direct
  0.7099723377123272  0.7099723377123272 -0.0000000000000000
  0.2900276622876728  0.2900276622876728  0.0000000000000000
 -0.0000000000000000 -0.0000000000000000 -0.0000000000000000
 
  0.00000000E+00  0.00000000E+00  0.00000000E+00
  0.00000000E+00  0.00000000E+00  0.00000000E+00
  0.00000000E+00  0.00000000E+00  0.00000000E+00
