Mo1O6Rh2 #136 - (Mo1O6Rh2_ICSD_200014) -
   1.00000000000000     
     4.6805998133305460    0.0000000000000000    0.0000000000000000
     0.0000000000000000    4.6805998133305460    0.0000000000000000
     0.0000000000000000    0.0000000000000000    9.2439720993849583
   2  12   4
Direct
  0.0000000000000000  0.0000000000000000  0.0000000000000000
  0.5000000000000000  0.5000000000000000  0.5000000000000000
  0.3007046979227450  0.3007046979227450  0.0000000000000000
  0.6992953020772550  0.6992953020772550  0.0000000000000000
  0.1992953020772550  0.8007046979227450  0.5000000000000000
  0.8007046979227450  0.1992953020772550  0.5000000000000000
  0.3058932100778130  0.3058932100778130  0.3439115956567645
  0.6941067899221869  0.6941067899221869  0.3439115956567645
  0.1941067899221870  0.8058932100778131  0.8439115956567645
  0.8058932100778131  0.1941067899221870  0.8439115956567645
  0.1941067899221870  0.8058932100778131  0.1560884043432355
  0.8058932100778131  0.1941067899221870  0.1560884043432355
  0.3058932100778130  0.3058932100778130  0.6560884043432355
  0.6941067899221869  0.6941067899221869  0.6560884043432355
  0.0000000000000000  0.0000000000000000  0.3329278717119729
  0.5000000000000000  0.5000000000000000  0.8329278717119729
  0.5000000000000000  0.5000000000000000  0.1670721282880271
  0.0000000000000000  0.0000000000000000  0.6670721282880271
 
  0.00000000E+00  0.00000000E+00  0.00000000E+00
  0.00000000E+00  0.00000000E+00  0.00000000E+00
  0.00000000E+00  0.00000000E+00  0.00000000E+00
  0.00000000E+00  0.00000000E+00  0.00000000E+00
  0.00000000E+00  0.00000000E+00  0.00000000E+00
  0.00000000E+00  0.00000000E+00  0.00000000E+00
  0.00000000E+00  0.00000000E+00  0.00000000E+00
  0.00000000E+00  0.00000000E+00  0.00000000E+00
  0.00000000E+00  0.00000000E+00  0.00000000E+00
  0.00000000E+00  0.00000000E+00  0.00000000E+00
  0.00000000E+00  0.00000000E+00  0.00000000E+00
  0.00000000E+00  0.00000000E+00  0.00000000E+00
  0.00000000E+00  0.00000000E+00  0.00000000E+00
  0.00000000E+00  0.00000000E+00  0.00000000E+00
  0.00000000E+00  0.00000000E+00  0.00000000E+00
  0.00000000E+00  0.00000000E+00  0.00000000E+00
  0.00000000E+00  0.00000000E+00  0.00000000E+00
  0.00000000E+00  0.00000000E+00  0.00000000E+00
