Ge3Mo5   [BCT,BCT1,tI32] (STD_PRIM doi:1
   1.00000000000000     
    -4.9665104590624409    4.9665104590624409    2.5129517230677125
     4.9665104590624409   -4.9665104590624409    2.5129517230677125
     4.9665104590624409    4.9665104590624409   -2.5129517230677125
   6  10
Direct
  0.1678593299275550  0.6678593299275550  0.8357186598551030
  0.8321406700724450  0.3321406700724450  0.1642813401448970
  0.3321406700724450  0.1678593299275550  0.5000000000000000
  0.6678593299275550  0.8321406700724450  0.5000000000000000
  0.7500000000000000  0.7500000000000000 -0.0000000000000000
  0.2500000000000000  0.2500000000000000 -0.0000000000000000
  0.0773616139692152  0.2295671206530971  0.3069287346223052
  0.9226383860307847  0.7704328793469030  0.6930712653776948
  0.7704328793469030  0.0773616139692152  0.8477944933161181
  0.2295671206530971  0.9226383860307847  0.1522055066838818
  0.4226383860307847  0.7295671206530970  0.1522055066838818
  0.5773616139692153  0.2704328793469030  0.8477944933161181
  0.7295671206530970  0.5773616139692153  0.3069287346223052
  0.2704328793469030  0.4226383860307847  0.6930712653776948
  0.7500000000000000  0.2500000000000000  0.5000000000000000
  0.2500000000000000  0.7500000000000000  0.5000000000000000
 
  0.00000000E+00  0.00000000E+00  0.00000000E+00
  0.00000000E+00  0.00000000E+00  0.00000000E+00
  0.00000000E+00  0.00000000E+00  0.00000000E+00
  0.00000000E+00  0.00000000E+00  0.00000000E+00
  0.00000000E+00  0.00000000E+00  0.00000000E+00
  0.00000000E+00  0.00000000E+00  0.00000000E+00
  0.00000000E+00  0.00000000E+00  0.00000000E+00
  0.00000000E+00  0.00000000E+00  0.00000000E+00
  0.00000000E+00  0.00000000E+00  0.00000000E+00
  0.00000000E+00  0.00000000E+00  0.00000000E+00
  0.00000000E+00  0.00000000E+00  0.00000000E+00
  0.00000000E+00  0.00000000E+00  0.00000000E+00
  0.00000000E+00  0.00000000E+00  0.00000000E+00
  0.00000000E+00  0.00000000E+00  0.00000000E+00
  0.00000000E+00  0.00000000E+00  0.00000000E+00
  0.00000000E+00  0.00000000E+00  0.00000000E+00
