Ag1Se1Tl1   [ORC,ORC,oP12] (STD_PRIM doi
   1.00000000000000     
     4.7028410190729462   -0.0000021260351470   -0.0000015315254447
    -0.0000040377045905    8.2984524481889199    0.0000174205242338
    -0.0000024695934075    0.0000326684878035    7.8279933888531144
   4   4   4
Direct
  0.2499999541614506  0.6655940139619470  0.9173687423396798
  0.7499999480581744  0.8343717118673951  0.4173915904228847
  0.7500000458385493  0.3344059860380529  0.0826312576603200
  0.2500000519418255  0.1656282881326048  0.5826084095771153
  0.2499999383524688  0.3072323908008646  0.8971357123499407
  0.7499999868846225  0.1927545467455223  0.3971265781866762
  0.7500000616475313  0.6927676091991354  0.1028642876500594
  0.2500000131153775  0.8072454532544777  0.6028734218133237
  0.2500000221877365  0.5053883131840972  0.3182669236270181
  0.7500000021421382  0.9946523052317888  0.8182602299108370
  0.7499999778122635  0.4946116868159030  0.6817330763729890
  0.2499999978578617  0.0053476947682111  0.1817397700891629
 
  0.00000000E+00  0.00000000E+00  0.00000000E+00
  0.00000000E+00  0.00000000E+00  0.00000000E+00
  0.00000000E+00  0.00000000E+00  0.00000000E+00
  0.00000000E+00  0.00000000E+00  0.00000000E+00
  0.00000000E+00  0.00000000E+00  0.00000000E+00
  0.00000000E+00  0.00000000E+00  0.00000000E+00
  0.00000000E+00  0.00000000E+00  0.00000000E+00
  0.00000000E+00  0.00000000E+00  0.00000000E+00
  0.00000000E+00  0.00000000E+00  0.00000000E+00
  0.00000000E+00  0.00000000E+00  0.00000000E+00
  0.00000000E+00  0.00000000E+00  0.00000000E+00
  0.00000000E+00  0.00000000E+00  0.00000000E+00
