Al1Tc2   [BCT,BCT2,tI6] (STD_PRIM doi:10
   1.00000000000000     
    -1.4976291736976577    1.4976291736976577    4.7625476777699749
     1.4976291736976577   -1.4976291736976577    4.7625476777699749
     1.4976291736976577    1.4976291736976577   -4.7625476777699749
   1   2
Direct
  0.0000000000000000  0.0000000000000000  0.0000000000000000
  0.3305141046413458  0.3305141046413458  0.0000000000000000
  0.6694858953586543  0.6694858953586543  0.0000000000000000
 
  0.00000000E+00  0.00000000E+00  0.00000000E+00
  0.00000000E+00  0.00000000E+00  0.00000000E+00
  0.00000000E+00  0.00000000E+00  0.00000000E+00
