As3Ir1   [BCC,BCC,cI32] (STD_PRIM doi:10
   1.00000000000000     
    -4.2830821480630297    4.2830821480630297    4.2830821480630297
     4.2830821480630297   -4.2830821480630297    4.2830821480630297
     4.2830821480630297    4.2830821480630297   -4.2830821480630297
  12   4
Direct
  0.6520053119663185  0.1460018085820875  0.7980071205484061
  0.3479946880336816  0.1460018085820875  0.4939964966157690
  0.6520053119663185  0.8539981914179126  0.5060035033842311
  0.3479946880336816  0.8539981914179126  0.2019928794515940
  0.1460018085820875  0.4939964966157690  0.3479946880336816
  0.1460018085820875  0.7980071205484061  0.6520053119663185
  0.8539981914179126  0.2019928794515940  0.3479946880336816
  0.8539981914179126  0.5060035033842311  0.6520053119663185
  0.2019928794515940  0.3479946880336816  0.8539981914179126
  0.5060035033842311  0.6520053119663185  0.8539981914179126
  0.4939964966157690  0.3479946880336816  0.1460018085820875
  0.7980071205484061  0.6520053119663185  0.1460018085820875
 -0.0000000000000000  0.5000000000000000 -0.0000000000000000
 -0.0000000000000000  0.0000000000000000  0.5000000000000000
  0.5000000000000000  0.5000000000000000  0.5000000000000000
  0.5000000000000000  0.0000000000000000  0.0000000000000000
 
  0.00000000E+00  0.00000000E+00  0.00000000E+00
  0.00000000E+00  0.00000000E+00  0.00000000E+00
  0.00000000E+00  0.00000000E+00  0.00000000E+00
  0.00000000E+00  0.00000000E+00  0.00000000E+00
  0.00000000E+00  0.00000000E+00  0.00000000E+00
  0.00000000E+00  0.00000000E+00  0.00000000E+00
  0.00000000E+00  0.00000000E+00  0.00000000E+00
  0.00000000E+00  0.00000000E+00  0.00000000E+00
  0.00000000E+00  0.00000000E+00  0.00000000E+00
  0.00000000E+00  0.00000000E+00  0.00000000E+00
  0.00000000E+00  0.00000000E+00  0.00000000E+00
  0.00000000E+00  0.00000000E+00  0.00000000E+00
  0.00000000E+00  0.00000000E+00  0.00000000E+00
  0.00000000E+00  0.00000000E+00  0.00000000E+00
  0.00000000E+00  0.00000000E+00  0.00000000E+00
  0.00000000E+00  0.00000000E+00  0.00000000E+00
