P1Rh1Zr1   [ORC,ORC,oP12] (STD_PRIM doi:
   1.00000000000000     
     3.8085361849855444    0.0000000000000000    0.0000000000000000
     0.0000000000000000    6.5296701960224803    0.0000000000000000
     0.0000000000000000    0.0000000000000000    7.4479052683326605
   4   4   4
Direct
  0.2500000000000000  0.7610497924176993  0.3777926674359592
  0.7500000000000000  0.7389502075823007  0.8777926674359592
  0.7500000000000000  0.2389502075823007  0.6222073325640408
  0.2500000000000000  0.2610497924176993  0.1222073325640408
  0.2500000000000000  0.1437721727160075  0.4377435274200631
  0.7500000000000000  0.3562278272839925  0.9377435274200631
  0.7500000000000000  0.8562278272839925  0.5622564725799369
  0.2500000000000000  0.6437721727160075  0.0622564725799369
  0.2500000000000000  0.0269027205868085  0.8193629827269318
  0.7500000000000000  0.4730972794131915  0.3193629827269318
  0.7500000000000000  0.9730972794131915  0.1806370172730682
  0.2500000000000000  0.5269027205868085  0.6806370172730682
 
  0.00000000E+00  0.00000000E+00  0.00000000E+00
  0.00000000E+00  0.00000000E+00  0.00000000E+00
  0.00000000E+00  0.00000000E+00  0.00000000E+00
  0.00000000E+00  0.00000000E+00  0.00000000E+00
  0.00000000E+00  0.00000000E+00  0.00000000E+00
  0.00000000E+00  0.00000000E+00  0.00000000E+00
  0.00000000E+00  0.00000000E+00  0.00000000E+00
  0.00000000E+00  0.00000000E+00  0.00000000E+00
  0.00000000E+00  0.00000000E+00  0.00000000E+00
  0.00000000E+00  0.00000000E+00  0.00000000E+00
  0.00000000E+00  0.00000000E+00  0.00000000E+00
  0.00000000E+00  0.00000000E+00  0.00000000E+00
