Ge1Rh1Tb1   [ORC,ORC,oP12] (STD_PRIM doi
   1.00000000000000     
     4.4117880489078081   -0.0000000000000000    0.0000000000000000
     0.0000000000000000    6.9381879431751088    0.0000000000000000
     0.0000000000000000    0.0000000000000000    7.4558105612566434
   4   4   4
Direct
  0.2500000000000000  0.8180919967345248  0.4181084227843349
  0.7500000000000000  0.6819080032654752  0.9181084227843350
  0.7500000000000000  0.1819080032654752  0.5818915772156650
  0.2500000000000000  0.3180919967345248  0.0818915772156650
  0.2500000000000000  0.2026359340579331  0.4084878264534676
  0.7500000000000000  0.2973640659420669  0.9084878264534676
  0.7500000000000000  0.7973640659420669  0.5915121735465324
  0.2500000000000000  0.7026359340579331  0.0915121735465324
  0.2500000000000000  0.9829065501651517  0.8021561754267359
  0.7500000000000000  0.5170934498348483  0.3021561754267358
  0.7500000000000000  0.0170934498348482  0.1978438245732641
  0.2500000000000000  0.4829065501651518  0.6978438245732641
 
  0.00000000E+00  0.00000000E+00  0.00000000E+00
  0.00000000E+00  0.00000000E+00  0.00000000E+00
  0.00000000E+00  0.00000000E+00  0.00000000E+00
  0.00000000E+00  0.00000000E+00  0.00000000E+00
  0.00000000E+00  0.00000000E+00  0.00000000E+00
  0.00000000E+00  0.00000000E+00  0.00000000E+00
  0.00000000E+00  0.00000000E+00  0.00000000E+00
  0.00000000E+00  0.00000000E+00  0.00000000E+00
  0.00000000E+00  0.00000000E+00  0.00000000E+00
  0.00000000E+00  0.00000000E+00  0.00000000E+00
  0.00000000E+00  0.00000000E+00  0.00000000E+00
  0.00000000E+00  0.00000000E+00  0.00000000E+00
