Br1Cu1   [CUB,CUB,cP16] (STD_PRIM doi:10
   1.00000000000000     
     6.9594726890682530   -0.0000000000000000    0.0000000000000000
     0.0000000000000000    6.9594726890682530    0.0000000000000000
     0.0000000000000000    0.0000000000000000    6.9594726890682530
   8   8
Direct
  0.1543331100002185  0.1543331100002185  0.1543331100002185
  0.3456668899997815  0.8456668899997815  0.6543331100002185
  0.8456668899997815  0.6543331100002185  0.3456668899997815
  0.6543331100002185  0.3456668899997815  0.8456668899997815
  0.8456668899997815  0.8456668899997815  0.8456668899997815
  0.6543331100002185  0.1543331100002185  0.3456668899997815
  0.1543331100002185  0.3456668899997815  0.6543331100002185
  0.3456668899997815  0.6543331100002185  0.1543331100002185
  0.6307064156688712  0.6307064156688712  0.6307064156688712
  0.8692935843311288  0.3692935843311287  0.1307064156688713
  0.3692935843311287  0.1307064156688713  0.8692935843311288
  0.1307064156688713  0.8692935843311288  0.3692935843311287
  0.3692935843311287  0.3692935843311287  0.3692935843311287
  0.1307064156688713  0.6307064156688712  0.8692935843311288
  0.6307064156688712  0.8692935843311288  0.1307064156688713
  0.8692935843311288  0.1307064156688713  0.6307064156688712
 
  0.00000000E+00  0.00000000E+00  0.00000000E+00
  0.00000000E+00  0.00000000E+00  0.00000000E+00
  0.00000000E+00  0.00000000E+00  0.00000000E+00
  0.00000000E+00  0.00000000E+00  0.00000000E+00
  0.00000000E+00  0.00000000E+00  0.00000000E+00
  0.00000000E+00  0.00000000E+00  0.00000000E+00
  0.00000000E+00  0.00000000E+00  0.00000000E+00
  0.00000000E+00  0.00000000E+00  0.00000000E+00
  0.00000000E+00  0.00000000E+00  0.00000000E+00
  0.00000000E+00  0.00000000E+00  0.00000000E+00
  0.00000000E+00  0.00000000E+00  0.00000000E+00
  0.00000000E+00  0.00000000E+00  0.00000000E+00
  0.00000000E+00  0.00000000E+00  0.00000000E+00
  0.00000000E+00  0.00000000E+00  0.00000000E+00
  0.00000000E+00  0.00000000E+00  0.00000000E+00
  0.00000000E+00  0.00000000E+00  0.00000000E+00
