Cu_pvO/AB_mC8_15_a_e-001.AB params=-1,0.
   1.01639600000000     
     2.0300967167560859    2.0551864639830253   -0.1537341681721615
    -2.0300967167560859    2.0551864639830253   -0.1537341681721615
     0.0000000000000000    0.4199856805124102    5.0531089165931871
   2   2
Direct
 -0.0000000000000000  0.0000000000000000 -0.0000000000000000
  0.5000000000000000  0.5000000000000000  0.5000000000000000
  0.4976828128796326  0.0023171871203675  0.2500000000000000
  0.5023171871203677  0.9976828128796323  0.7500000000000000
 
  0.00000000E+00  0.00000000E+00  0.00000000E+00
  0.00000000E+00  0.00000000E+00  0.00000000E+00
  0.00000000E+00  0.00000000E+00  0.00000000E+00
  0.00000000E+00  0.00000000E+00  0.00000000E+00
