Ho1In1Ir1   [HEX,HEX,hP9] (STD_PRIM doi:
   1.00000000000000     
     3.7216540000942913   -6.4462348388058883    0.0000000000000000
     3.7216540000942913    6.4462348388058883    0.0000000000000000
     0.0000000000000000    0.0000000000000000    3.9395957067894889
   3   3   3
Direct
  0.4050612265953578  0.0000020267530111  0.0000000000000000
  0.0000020267530111  0.4050612265953578  0.0000000000000000
  0.5949351409102989  0.5949351409102989  0.0000000000000000
  0.7432449422569777  0.9999973214026954  0.5000000000000000
  0.9999973214026954  0.7432449422569777  0.5000000000000000
  0.2567612107643686  0.2567612107643686  0.5000000000000000
  0.6666699066396096  0.3333254992896487  0.5000000000000000
  0.3333254992896487  0.6666699066396096  0.5000000000000000
  0.0000027253880323  0.0000027253880323  0.0000000000000000
 
  0.00000000E+00  0.00000000E+00  0.00000000E+00
  0.00000000E+00  0.00000000E+00  0.00000000E+00
  0.00000000E+00  0.00000000E+00  0.00000000E+00
  0.00000000E+00  0.00000000E+00  0.00000000E+00
  0.00000000E+00  0.00000000E+00  0.00000000E+00
  0.00000000E+00  0.00000000E+00  0.00000000E+00
  0.00000000E+00  0.00000000E+00  0.00000000E+00
  0.00000000E+00  0.00000000E+00  0.00000000E+00
  0.00000000E+00  0.00000000E+00  0.00000000E+00
