La1Pd1 #63 - (La1Pd1_ICSD_641672) - La1P
   1.00000000000000     
     1.9913654827156857   -5.5772234365598328    0.0000000000000000
     1.9913654827156857    5.5772234365598328    0.0000000000000000
     0.0000000000000000    0.0000000000000000    4.7290790075075231
   2   2
Direct
  0.8646074704612627  0.1353925295387372  0.7500000000000000
  0.1353925295387372  0.8646074704612627  0.2500000000000000
  0.5871760691045156  0.4128239308954845  0.7500000000000000
  0.4128239308954845  0.5871760691045156  0.2500000000000000
 
  0.00000000E+00  0.00000000E+00  0.00000000E+00
  0.00000000E+00  0.00000000E+00  0.00000000E+00
  0.00000000E+00  0.00000000E+00  0.00000000E+00
  0.00000000E+00  0.00000000E+00  0.00000000E+00
