Rh1Si3Tb1   [BCT,BCT2,tI10] (STD_PRIM do
   1.00000000000000     
    -2.0877818129701384    2.0877818129701384    4.8662113944685927
     2.0877818129701384   -2.0877818129701384    4.8662113944685927
     2.0877818129701384    2.0877818129701384   -4.8662113944685927
   1   3   1
Direct
  0.6525637043817215  0.6525637043817215  0.0000000000000000
  0.4139964706993093  0.4139964706993093 -0.0000000000000000
  0.7640130368660053  0.2640130368660052  0.5000000000000000
  0.2640130368660052  0.7640130368660053  0.5000000000000000
  0.9994137511869597  0.9994137511869597  0.0000000000000000
 
  0.00000000E+00  0.00000000E+00  0.00000000E+00
  0.00000000E+00  0.00000000E+00  0.00000000E+00
  0.00000000E+00  0.00000000E+00  0.00000000E+00
  0.00000000E+00  0.00000000E+00  0.00000000E+00
  0.00000000E+00  0.00000000E+00  0.00000000E+00
