B2C2La1   [TET,TET,tP10] (STD_PRIM doi:1
   1.00000000000000     
     5.4165382073746802    0.0000000000000000    0.0000000000000000
     0.0000000000000000    5.4165382073746802    0.0000000000000000
     0.0000000000000000    0.0000000000000000    4.0312835527948563
   4   4   2
Direct
  0.3615851022635752  0.8615851022635752  0.5000000000000000
  0.6384148977364248  0.1384148977364248  0.5000000000000000
  0.1384148977364248  0.3615851022635752  0.5000000000000000
  0.8615851022635752  0.6384148977364248  0.5000000000000000
  0.1602880635098742  0.6602880635098742  0.5000000000000000
  0.8397119364901258  0.3397119364901258  0.5000000000000000
  0.3397119364901258  0.1602880635098742  0.5000000000000000
  0.6602880635098742  0.8397119364901258  0.5000000000000000
  0.0000000000000000  0.0000000000000000  0.0000000000000000
  0.5000000000000000  0.5000000000000000  0.0000000000000000
 
  0.00000000E+00  0.00000000E+00  0.00000000E+00
  0.00000000E+00  0.00000000E+00  0.00000000E+00
  0.00000000E+00  0.00000000E+00  0.00000000E+00
  0.00000000E+00  0.00000000E+00  0.00000000E+00
  0.00000000E+00  0.00000000E+00  0.00000000E+00
  0.00000000E+00  0.00000000E+00  0.00000000E+00
  0.00000000E+00  0.00000000E+00  0.00000000E+00
  0.00000000E+00  0.00000000E+00  0.00000000E+00
  0.00000000E+00  0.00000000E+00  0.00000000E+00
  0.00000000E+00  0.00000000E+00  0.00000000E+00
