Ge3Rh5   [ORC,ORC,oP16] (STD_PRIM doi:10
   1.00000000000000     
     3.9686779820538556    0.0000000000000000    0.0000000000000000
     0.0000000000000000    5.4995017559831076    0.0000000000000000
     0.0000000000000000   -0.0000000000000000   10.5464662349617786
   6  10
Direct
  0.0000000000000000 -0.0000000000000000  0.0000000000000000
  0.0000000000000000  0.5000000000000000  0.5000000000000000
  0.5000000000000000  0.3981339645378146  0.8460211727116504
  0.5000000000000000  0.6018660354621854  0.1539788272883496
  0.5000000000000000  0.1018660354621854  0.3460211727116504
  0.5000000000000000  0.8981339645378146  0.6539788272883496
  0.0000000000000000  0.0000000000000000  0.5000000000000000
  0.0000000000000000  0.5000000000000000 -0.0000000000000000
  0.0000000000000000  0.1491340486282019  0.7833585384218198
  0.0000000000000000  0.8508659513717981  0.2166414615781801
  0.0000000000000000  0.3508659513717980  0.2833585384218199
  0.0000000000000000  0.6491340486282019  0.7166414615781802
  0.5000000000000000  0.3315506513989995  0.6077442486740461
  0.5000000000000000  0.6684493486010005  0.3922557513259539
  0.5000000000000000  0.1684493486010004  0.1077442486740461
  0.5000000000000000  0.8315506513989995  0.8922557513259539
 
  0.00000000E+00  0.00000000E+00  0.00000000E+00
  0.00000000E+00  0.00000000E+00  0.00000000E+00
  0.00000000E+00  0.00000000E+00  0.00000000E+00
  0.00000000E+00  0.00000000E+00  0.00000000E+00
  0.00000000E+00  0.00000000E+00  0.00000000E+00
  0.00000000E+00  0.00000000E+00  0.00000000E+00
  0.00000000E+00  0.00000000E+00  0.00000000E+00
  0.00000000E+00  0.00000000E+00  0.00000000E+00
  0.00000000E+00  0.00000000E+00  0.00000000E+00
  0.00000000E+00  0.00000000E+00  0.00000000E+00
  0.00000000E+00  0.00000000E+00  0.00000000E+00
  0.00000000E+00  0.00000000E+00  0.00000000E+00
  0.00000000E+00  0.00000000E+00  0.00000000E+00
  0.00000000E+00  0.00000000E+00  0.00000000E+00
  0.00000000E+00  0.00000000E+00  0.00000000E+00
  0.00000000E+00  0.00000000E+00  0.00000000E+00
