Ge1Pt1Zr1   [ORC,ORC,oP12] (STD_PRIM doi
   1.00000000000000     
     4.0017373531391849    0.0000000000000000    0.0000000000000000
    -0.0000000000000000    6.7102990451072007    0.0000000000000000
     0.0000000000000000    0.0000000000000000    7.7390713581363819
   4   4   4
Direct
  0.2500000000000000  0.2551231137925317  0.6214807876031293
  0.7500000000000000  0.2448768862074683  0.1214807876031293
  0.7500000000000000  0.7448768862074683  0.3785192123968707
  0.2500000000000000  0.7551231137925317  0.8785192123968707
  0.2500000000000000  0.1449444021258419  0.9366674306864083
  0.7500000000000000  0.3550555978741581  0.4366674306864083
  0.7500000000000000  0.8550555978741581  0.0633325693135917
  0.2500000000000000  0.6449444021258419  0.5633325693135917
  0.2500000000000000  0.0274473345006200  0.3167995888492973
  0.7500000000000000  0.4725526654993800  0.8167995888492974
  0.7500000000000000  0.9725526654993799  0.6832004111507026
  0.2500000000000000  0.5274473345006201  0.1832004111507027
 
  0.00000000E+00  0.00000000E+00  0.00000000E+00
  0.00000000E+00  0.00000000E+00  0.00000000E+00
  0.00000000E+00  0.00000000E+00  0.00000000E+00
  0.00000000E+00  0.00000000E+00  0.00000000E+00
  0.00000000E+00  0.00000000E+00  0.00000000E+00
  0.00000000E+00  0.00000000E+00  0.00000000E+00
  0.00000000E+00  0.00000000E+00  0.00000000E+00
  0.00000000E+00  0.00000000E+00  0.00000000E+00
  0.00000000E+00  0.00000000E+00  0.00000000E+00
  0.00000000E+00  0.00000000E+00  0.00000000E+00
  0.00000000E+00  0.00000000E+00  0.00000000E+00
  0.00000000E+00  0.00000000E+00  0.00000000E+00
