Ca1Zn13   [FCC,FCC,cF112] (STD_PRIM doi:
   1.22474500000000     
     0.0000000000000000    4.9287177612258857    4.9287177612258857
     4.9287177612258857    0.0000000000000000    4.9287177612258857
     4.9287177612258857    4.9287177612258857    0.0000000000000000
   2  26
Direct
  0.7500000000000000  0.7500000000000000  0.7500000000000000
  0.2500000000000000  0.2500000000000000  0.2500000000000000
  0.4403812674039713  0.5596187325960287  0.7994776709584315
  0.5596187325960287  0.4403812674039713  0.2005223290415685
  0.2005223290415685  0.7994776709584315  0.5596187325960287
  0.7994776709584315  0.2005223290415685  0.4403812674039713
  0.4403812674039713  0.2005223290415685  0.5596187325960287
  0.5596187325960287  0.7994776709584315  0.4403812674039713
  0.2005223290415685  0.4403812674039713  0.7994776709584315
  0.7994776709584315  0.5596187325960287  0.2005223290415685
  0.4403812674039713  0.7994776709584315  0.2005223290415685
  0.5596187325960287  0.2005223290415685  0.7994776709584315
  0.2005223290415685  0.5596187325960287  0.4403812674039713
  0.7994776709584315  0.4403812674039713  0.5596187325960287
  0.9403812674039713  0.0596187325960287  0.7005223290415685
  0.0596187325960287  0.9403812674039713  0.2994776709584315
  0.7005223290415685  0.2994776709584315  0.9403812674039713
  0.2994776709584315  0.7005223290415685  0.0596187325960287
  0.2994776709584315  0.0596187325960287  0.9403812674039713
  0.7005223290415685  0.9403812674039713  0.0596187325960287
  0.0596187325960287  0.2994776709584315  0.7005223290415685
  0.9403812674039713  0.7005223290415685  0.2994776709584315
  0.7005223290415685  0.0596187325960287  0.2994776709584315
  0.2994776709584315  0.9403812674039713  0.7005223290415685
  0.9403812674039713  0.2994776709584315  0.0596187325960287
  0.0596187325960287  0.7005223290415685  0.9403812674039713
  0.0000000000000000  0.0000000000000000  0.0000000000000000
  0.5000000000000000  0.5000000000000000  0.5000000000000000
 
  0.00000000E+00  0.00000000E+00  0.00000000E+00
  0.00000000E+00  0.00000000E+00  0.00000000E+00
  0.00000000E+00  0.00000000E+00  0.00000000E+00
  0.00000000E+00  0.00000000E+00  0.00000000E+00
  0.00000000E+00  0.00000000E+00  0.00000000E+00
  0.00000000E+00  0.00000000E+00  0.00000000E+00
  0.00000000E+00  0.00000000E+00  0.00000000E+00
  0.00000000E+00  0.00000000E+00  0.00000000E+00
  0.00000000E+00  0.00000000E+00  0.00000000E+00
  0.00000000E+00  0.00000000E+00  0.00000000E+00
  0.00000000E+00  0.00000000E+00  0.00000000E+00
  0.00000000E+00  0.00000000E+00  0.00000000E+00
  0.00000000E+00  0.00000000E+00  0.00000000E+00
  0.00000000E+00  0.00000000E+00  0.00000000E+00
  0.00000000E+00  0.00000000E+00  0.00000000E+00
  0.00000000E+00  0.00000000E+00  0.00000000E+00
  0.00000000E+00  0.00000000E+00  0.00000000E+00
  0.00000000E+00  0.00000000E+00  0.00000000E+00
  0.00000000E+00  0.00000000E+00  0.00000000E+00
  0.00000000E+00  0.00000000E+00  0.00000000E+00
  0.00000000E+00  0.00000000E+00  0.00000000E+00
  0.00000000E+00  0.00000000E+00  0.00000000E+00
  0.00000000E+00  0.00000000E+00  0.00000000E+00
  0.00000000E+00  0.00000000E+00  0.00000000E+00
  0.00000000E+00  0.00000000E+00  0.00000000E+00
  0.00000000E+00  0.00000000E+00  0.00000000E+00
  0.00000000E+00  0.00000000E+00  0.00000000E+00
  0.00000000E+00  0.00000000E+00  0.00000000E+00
