Er2Ni1Sn6   [ORCC,ORCC,oS18] (STD_PRIM d
   1.00000000000000     
     2.1990834900723923  -11.4003504475389601    0.0000000000000000
     2.1990834900723923   11.4003504475389601    0.0000000000000000
     0.0000000000000000    0.0000000000000000    4.4678954553901420
   2   1   6
Direct
  0.1784579733767119  0.8215420266232880  0.0000000000000000
  0.8215420266232880  0.1784579733767119  0.0000000000000000
  0.5000000000000000  0.5000000000000000  0.5000000000000000
  0.4301887069429192  0.5698112930570808  0.0000000000000000
  0.5698112930570808  0.4301887069429192  0.0000000000000000
  0.0707900960979157  0.9292099039020842  0.5000000000000000
  0.9292099039020842  0.0707900960979157  0.5000000000000000
  0.7039359936470579  0.2960640063529421  0.5000000000000000
  0.2960640063529421  0.7039359936470579  0.5000000000000000
 
  0.00000000E+00  0.00000000E+00  0.00000000E+00
  0.00000000E+00  0.00000000E+00  0.00000000E+00
  0.00000000E+00  0.00000000E+00  0.00000000E+00
  0.00000000E+00  0.00000000E+00  0.00000000E+00
  0.00000000E+00  0.00000000E+00  0.00000000E+00
  0.00000000E+00  0.00000000E+00  0.00000000E+00
  0.00000000E+00  0.00000000E+00  0.00000000E+00
  0.00000000E+00  0.00000000E+00  0.00000000E+00
  0.00000000E+00  0.00000000E+00  0.00000000E+00
