Ho3Sn7   [ORCC,ORCC,oS20] (STD_PRIM doi:
   1.00000000000000     
     2.2157637492624733  -13.3362062285589449    0.0000000000000000
     2.2157637492624733   13.3362062285589449    0.0000000000000000
     0.0000000000000000    0.0000000000000000    4.5386773804709399
   3   7
Direct
 -0.0000000000000000 -0.0000000000000000  0.5000000000000000
  0.3103032574330488  0.6896967425669440 -0.0000000000000000
  0.6896967425669440  0.3103032574330488  0.0000000000000000
  0.5000000000000000  0.5000000000000000  0.0000000000000000
  0.4025621131228682  0.5974378868771318  0.5000000000000000
  0.5974378868771318  0.4025621131228682  0.5000000000000000
  0.0965852231888034  0.9034147768111966  0.0000000000000000
  0.9034147768111966  0.0965852231888034 -0.0000000000000000
  0.2106049731979271  0.7893950268020729  0.5000000000000000
  0.7893950268020729  0.2106049731979271  0.5000000000000000
 
  0.00000000E+00  0.00000000E+00  0.00000000E+00
  0.00000000E+00  0.00000000E+00  0.00000000E+00
  0.00000000E+00  0.00000000E+00  0.00000000E+00
  0.00000000E+00  0.00000000E+00  0.00000000E+00
  0.00000000E+00  0.00000000E+00  0.00000000E+00
  0.00000000E+00  0.00000000E+00  0.00000000E+00
  0.00000000E+00  0.00000000E+00  0.00000000E+00
  0.00000000E+00  0.00000000E+00  0.00000000E+00
  0.00000000E+00  0.00000000E+00  0.00000000E+00
  0.00000000E+00  0.00000000E+00  0.00000000E+00
