B1C2N1 #17 - (B1C2N1_ICSD_93040) - B1C2N
   1.00000000000000     
     3.6499077212032951    0.0000000000000000    0.0000000000000000
     0.0000000000000000    3.6072065088190386    0.0000000000000000
     0.0000000000000000    0.0000000000000000    3.6010487175854546
   2   4   2
Direct
  0.0000000000000000  0.7500000000000000  0.7471408245890814
  0.0000000000000000  0.2500000000000000  0.2528591754109186
  0.7424633091507218  0.0000000000000000  0.5000000000000000
  0.2575366908492782  0.5000000000000000  0.5000000000000000
  0.5000000000000000  0.7500000000000000  0.2550775952020103
  0.5000000000000000  0.2500000000000000  0.7449224047979897
  0.2579830583543838  0.0000000000000000  0.0000000000000000
  0.7420169416456162  0.5000000000000000  0.0000000000000000
 
  0.00000000E+00  0.00000000E+00  0.00000000E+00
  0.00000000E+00  0.00000000E+00  0.00000000E+00
  0.00000000E+00  0.00000000E+00  0.00000000E+00
  0.00000000E+00  0.00000000E+00  0.00000000E+00
  0.00000000E+00  0.00000000E+00  0.00000000E+00
  0.00000000E+00  0.00000000E+00  0.00000000E+00
  0.00000000E+00  0.00000000E+00  0.00000000E+00
  0.00000000E+00  0.00000000E+00  0.00000000E+00
