La1Rh2Si2 #139 - (La1Rh2Si2_ICSD_601417)
   1.00000000000000     
    -2.0665381841689268    2.0665381841689268    5.1768667090464158
     2.0665381841689268   -2.0665381841689268    5.1768667090464158
     2.0665381841689268    2.0665381841689268   -5.1768667090464158
   1   2   2
Direct
  0.0000000000000000  0.0000000000000000  0.0000000000000000
  0.2500000000000000  0.7500000000000000  0.5000000000000000
  0.7500000000000000  0.2500000000000000  0.5000000000000000
  0.3712858565176589  0.3712858565176589  0.0000000000000000
  0.6287141434823411  0.6287141434823411  0.0000000000000000
 
  0.00000000E+00  0.00000000E+00  0.00000000E+00
  0.00000000E+00  0.00000000E+00  0.00000000E+00
  0.00000000E+00  0.00000000E+00  0.00000000E+00
  0.00000000E+00  0.00000000E+00  0.00000000E+00
  0.00000000E+00  0.00000000E+00  0.00000000E+00
