Hg3Y1   [HEX,HEX,hP8] (STD_PRIM doi:10.1
   1.00000000000000     
     3.3264853126722183   -5.7619670370376355    0.0000000000000000
     3.3264853126722183    5.7619670370376355   -0.0000000000000000
     0.0000000000000000    0.0000000000000000    5.0084278330174943
   6   2
Direct
  0.8338619763491869  0.6677504569342013  0.2500000000000000
  0.3322495430657986  0.1661380236508130  0.2500000000000000
  0.8338845371870414  0.1661154628129586  0.2500000000000000
  0.1661380236508130  0.3322495430657986  0.7500000000000000
  0.6677504569342013  0.8338619763491869  0.7500000000000000
  0.1661154628129586  0.8338845371870414  0.7500000000000000
  0.3333171323944337  0.6666828676055663  0.2500000000000000
  0.6666828676055663  0.3333171323944337  0.7500000000000000
 
  0.00000000E+00  0.00000000E+00  0.00000000E+00
  0.00000000E+00  0.00000000E+00  0.00000000E+00
  0.00000000E+00  0.00000000E+00  0.00000000E+00
  0.00000000E+00  0.00000000E+00  0.00000000E+00
  0.00000000E+00  0.00000000E+00  0.00000000E+00
  0.00000000E+00  0.00000000E+00  0.00000000E+00
  0.00000000E+00  0.00000000E+00  0.00000000E+00
  0.00000000E+00  0.00000000E+00  0.00000000E+00
