Cl6Rb2Sn1   [FCC,FCC,cF36] (STD_PRIM doi
   1.22474500000000     
    -0.0000000000000000    4.2882885277534513    4.2882885277534513
     4.2882885277534513    0.0000000000000000    4.2882885277534513
     4.2882885277534513    4.2882885277534513    0.0000000000000000
   6   2   1
Direct
  0.7616786419926237  0.2383213580073763  0.2383213580073763
  0.2383213580073763  0.7616786419926237  0.7616786419926237
  0.2383213580073763  0.2383213580073763  0.7616786419926237
  0.7616786419926237  0.7616786419926237  0.2383213580073763
  0.7616786419926237  0.2383213580073763  0.7616786419926237
  0.2383213580073763  0.7616786419926237  0.2383213580073763
  0.7500000000000000  0.7500000000000000  0.7500000000000000
  0.2500000000000000  0.2500000000000000  0.2500000000000000
  0.0000000000000000  0.0000000000000000 -0.0000000000000000
 
  0.00000000E+00  0.00000000E+00  0.00000000E+00
  0.00000000E+00  0.00000000E+00  0.00000000E+00
  0.00000000E+00  0.00000000E+00  0.00000000E+00
  0.00000000E+00  0.00000000E+00  0.00000000E+00
  0.00000000E+00  0.00000000E+00  0.00000000E+00
  0.00000000E+00  0.00000000E+00  0.00000000E+00
  0.00000000E+00  0.00000000E+00  0.00000000E+00
  0.00000000E+00  0.00000000E+00  0.00000000E+00
  0.00000000E+00  0.00000000E+00  0.00000000E+00
