Er1P1Pd1   [ORC,ORC,oP12] (STD_PRIM doi:
   1.00000000000000     
     3.9827405017659436    0.0000000000000000    0.0000000000000000
     0.0000000000000000    6.8687622629329548    0.0000000000000000
     0.0000000000000000    0.0000000000000000    7.7405875005557903
   4   4   4
Direct
  0.2500000000000000  0.5314445387796920  0.3117576918359893
  0.7500000000000000  0.9685554612203080  0.8117576918359893
  0.7500000000000000  0.4685554612203079  0.6882423081640107
  0.2500000000000000  0.0314445387796920  0.1882423081640107
  0.2500000000000000  0.2489333657143866  0.8772513996234059
  0.7500000000000000  0.2510666342856134  0.3772513996234059
  0.7500000000000000  0.7510666342856135  0.1227486003765941
  0.2500000000000000  0.7489333657143865  0.6227486003765941
  0.2500000000000000  0.6475377666611395  0.9382213691571591
  0.7500000000000000  0.8524622333388605  0.4382213691571591
  0.7500000000000000  0.3524622333388606  0.0617786308428409
  0.2500000000000000  0.1475377666611394  0.5617786308428409
 
  0.00000000E+00  0.00000000E+00  0.00000000E+00
  0.00000000E+00  0.00000000E+00  0.00000000E+00
  0.00000000E+00  0.00000000E+00  0.00000000E+00
  0.00000000E+00  0.00000000E+00  0.00000000E+00
  0.00000000E+00  0.00000000E+00  0.00000000E+00
  0.00000000E+00  0.00000000E+00  0.00000000E+00
  0.00000000E+00  0.00000000E+00  0.00000000E+00
  0.00000000E+00  0.00000000E+00  0.00000000E+00
  0.00000000E+00  0.00000000E+00  0.00000000E+00
  0.00000000E+00  0.00000000E+00  0.00000000E+00
  0.00000000E+00  0.00000000E+00  0.00000000E+00
  0.00000000E+00  0.00000000E+00  0.00000000E+00
