Ba2Ge1 #62 - (Ba2Ge1_ICSD_25351) - Ba2Ge
   1.00000000000000     
     5.4710680814298280    0.0000000000000000    0.0000000000000000
     0.0000000000000000    8.5318339644185244    0.0000000000000000
     0.0000000000000000    0.0000000000000000   10.2284884602613211
   8   4
Direct
  0.2500000000000000  0.5181022834493055  0.3289816519788327
  0.7500000000000000  0.9818977165506945  0.8289816519788327
  0.7500000000000000  0.4818977165506944  0.6710183480211673
  0.2500000000000000  0.0181022834493056  0.1710183480211672
  0.2500000000000000  0.6466260179477775  0.9157491697709355
  0.7500000000000000  0.8533739820522225  0.4157491697709355
  0.7500000000000000  0.3533739820522224  0.0842508302290645
  0.2500000000000000  0.1466260179477776  0.5842508302290645
  0.2500000000000000  0.2492098000760991  0.9010515708712880
  0.7500000000000000  0.2507901999239009  0.4010515708712880
  0.7500000000000000  0.7507901999239008  0.0989484291287121
  0.2500000000000000  0.7492098000760992  0.5989484291287120
 
  0.00000000E+00  0.00000000E+00  0.00000000E+00
  0.00000000E+00  0.00000000E+00  0.00000000E+00
  0.00000000E+00  0.00000000E+00  0.00000000E+00
  0.00000000E+00  0.00000000E+00  0.00000000E+00
  0.00000000E+00  0.00000000E+00  0.00000000E+00
  0.00000000E+00  0.00000000E+00  0.00000000E+00
  0.00000000E+00  0.00000000E+00  0.00000000E+00
  0.00000000E+00  0.00000000E+00  0.00000000E+00
  0.00000000E+00  0.00000000E+00  0.00000000E+00
  0.00000000E+00  0.00000000E+00  0.00000000E+00
  0.00000000E+00  0.00000000E+00  0.00000000E+00
  0.00000000E+00  0.00000000E+00  0.00000000E+00
