Ag1Ca1Sb1   [ORC,ORC,oP12] (STD_PRIM doi
   1.00000000000000     
     4.6235428936965928    0.0000000000000000    0.0000000000000000
     0.0000000000000000    7.7561446150842466    0.0000000000000000
     0.0000000000000000    0.0000000000000000    8.6011371191409527
   4   4   4
Direct
  0.2500000000000000  0.1411193386115991  0.9352756403282457
  0.7500000000000000  0.3588806613884009  0.4352756403282458
  0.7500000000000000  0.8588806613884009  0.0647243596717542
  0.2500000000000000  0.6411193386115991  0.5647243596717543
  0.2500000000000000  0.0241483101487550  0.3062771229776314
  0.7500000000000000  0.4758516898512450  0.8062771229776315
  0.7500000000000000  0.9758516898512450  0.6937228770223685
  0.2500000000000000  0.5241483101487550  0.1937228770223685
  0.2500000000000000  0.2551671209065594  0.6148701537898383
  0.7500000000000000  0.2448328790934406  0.1148701537898384
  0.7500000000000000  0.7448328790934406  0.3851298462101616
  0.2500000000000000  0.7551671209065594  0.8851298462101617
 
  0.00000000E+00  0.00000000E+00  0.00000000E+00
  0.00000000E+00  0.00000000E+00  0.00000000E+00
  0.00000000E+00  0.00000000E+00  0.00000000E+00
  0.00000000E+00  0.00000000E+00  0.00000000E+00
  0.00000000E+00  0.00000000E+00  0.00000000E+00
  0.00000000E+00  0.00000000E+00  0.00000000E+00
  0.00000000E+00  0.00000000E+00  0.00000000E+00
  0.00000000E+00  0.00000000E+00  0.00000000E+00
  0.00000000E+00  0.00000000E+00  0.00000000E+00
  0.00000000E+00  0.00000000E+00  0.00000000E+00
  0.00000000E+00  0.00000000E+00  0.00000000E+00
  0.00000000E+00  0.00000000E+00  0.00000000E+00
