Au3Ca5   [BCT,BCT2,tI32] (STD_PRIM doi:1
   1.00000000000000     
    -3.9507490808415211    3.9507490808415211    7.3133026602070021
     3.9507490808415211   -3.9507490808415211    7.3133026602070021
     3.9507490808415211    3.9507490808415211   -7.3133026602070021
   6  10
Direct
  0.7500000000000000  0.7500000000000000  0.0000000000000000
  0.2500000000000000  0.2500000000000000 -0.0000000000000000
  0.3685717630451225  0.8685717630451225  0.2371435260902520
  0.6314282369548775  0.1314282369548775  0.7628564739097480
  0.1314282369548775  0.3685717630451225  0.5000000000000000
  0.8685717630451225  0.6314282369548775  0.5000000000000000
 -0.0000000000000000 -0.0000000000000000 -0.0000000000000000
  0.5000000000000000  0.5000000000000000  0.0000000000000000
  0.0230863570405755  0.5230863570405825  0.8350416492985779
  0.6880447077420048  0.1880447077420047  0.1649583507014221
  0.1880447077420047  0.0230863570405755  0.5000000000000000
  0.5230863570405825  0.6880447077420048  0.5000000000000000
  0.4769136429594245  0.3119552922579953  0.5000000000000000
  0.8119552922579952  0.9769136429594175  0.5000000000000000
  0.3119552922579953  0.8119552922579952  0.8350416492985779
  0.9769136429594175  0.4769136429594245  0.1649583507014221
 
  0.00000000E+00  0.00000000E+00  0.00000000E+00
  0.00000000E+00  0.00000000E+00  0.00000000E+00
  0.00000000E+00  0.00000000E+00  0.00000000E+00
  0.00000000E+00  0.00000000E+00  0.00000000E+00
  0.00000000E+00  0.00000000E+00  0.00000000E+00
  0.00000000E+00  0.00000000E+00  0.00000000E+00
  0.00000000E+00  0.00000000E+00  0.00000000E+00
  0.00000000E+00  0.00000000E+00  0.00000000E+00
  0.00000000E+00  0.00000000E+00  0.00000000E+00
  0.00000000E+00  0.00000000E+00  0.00000000E+00
  0.00000000E+00  0.00000000E+00  0.00000000E+00
  0.00000000E+00  0.00000000E+00  0.00000000E+00
  0.00000000E+00  0.00000000E+00  0.00000000E+00
  0.00000000E+00  0.00000000E+00  0.00000000E+00
  0.00000000E+00  0.00000000E+00  0.00000000E+00
  0.00000000E+00  0.00000000E+00  0.00000000E+00
