Au2Ho1   [BCT,BCT2,tI6] (STD_PRIM doi:10
   1.00000000000000     
    -1.8607835133171802    1.8607835133171802    4.5079664260276049
     1.8607835133171802   -1.8607835133171802    4.5079664260276049
     1.8607835133171802    1.8607835133171802   -4.5079664260276049
   2   1
Direct
  0.6651926695296134  0.6651926695296134  0.0000000000000000
  0.3348073304703867  0.3348073304703867  0.0000000000000000
 -0.0000000000000000  0.0000000000000000  0.0000000000000000
 
  0.00000000E+00  0.00000000E+00  0.00000000E+00
  0.00000000E+00  0.00000000E+00  0.00000000E+00
  0.00000000E+00  0.00000000E+00  0.00000000E+00
