In7Pt3   [BCC,BCC,cI40] (STD_PRIM doi:10
   1.00000000000000     
    -4.7608522203415848    4.7608522203415848    4.7608522203415848
     4.7608522203415848   -4.7608522203415848    4.7608522203415848
     4.7608522203415848    4.7608522203415848   -4.7608522203415848
  14   6
Direct
  0.5000000000000000  0.2500000000000000  0.7500000000000000
  0.5000000000000000  0.7500000000000000  0.2500000000000000
  0.7500000000000000  0.2500000000000000  0.5000000000000000
  0.2500000000000000  0.7500000000000000  0.5000000000000000
  0.7500000000000000  0.5000000000000000  0.2500000000000000
  0.2500000000000000  0.5000000000000000  0.7500000000000000
  0.0000000000000000  0.0000000000000000  0.3261514582889349
  0.3261514582889349  0.0000000000000000  0.0000000000000000
  0.6738485417110651  0.6738485417110651  0.6738485417110651
  0.0000000000000000  0.3261514582889349  0.0000000000000000
  0.6738485417110651 -0.0000000000000000 -0.0000000000000000
 -0.0000000000000000  0.0000000000000000  0.6738485417110651
  0.3261514582889349  0.3261514582889349  0.3261514582889349
 -0.0000000000000000  0.6738485417110651 -0.0000000000000000
  0.0000000000000000  0.3443464978227777  0.3443464978227777
  0.0000000000000000  0.6556535021772223  0.6556535021772223
  0.6556535021772223  0.6556535021772223 -0.0000000000000000
  0.3443464978227777  0.3443464978227777  0.0000000000000000
  0.3443464978227777  0.0000000000000000  0.3443464978227777
  0.6556535021772223  0.0000000000000000  0.6556535021772223
 
  0.00000000E+00  0.00000000E+00  0.00000000E+00
  0.00000000E+00  0.00000000E+00  0.00000000E+00
  0.00000000E+00  0.00000000E+00  0.00000000E+00
  0.00000000E+00  0.00000000E+00  0.00000000E+00
  0.00000000E+00  0.00000000E+00  0.00000000E+00
  0.00000000E+00  0.00000000E+00  0.00000000E+00
  0.00000000E+00  0.00000000E+00  0.00000000E+00
  0.00000000E+00  0.00000000E+00  0.00000000E+00
  0.00000000E+00  0.00000000E+00  0.00000000E+00
  0.00000000E+00  0.00000000E+00  0.00000000E+00
  0.00000000E+00  0.00000000E+00  0.00000000E+00
  0.00000000E+00  0.00000000E+00  0.00000000E+00
  0.00000000E+00  0.00000000E+00  0.00000000E+00
  0.00000000E+00  0.00000000E+00  0.00000000E+00
  0.00000000E+00  0.00000000E+00  0.00000000E+00
  0.00000000E+00  0.00000000E+00  0.00000000E+00
  0.00000000E+00  0.00000000E+00  0.00000000E+00
  0.00000000E+00  0.00000000E+00  0.00000000E+00
  0.00000000E+00  0.00000000E+00  0.00000000E+00
  0.00000000E+00  0.00000000E+00  0.00000000E+00
