Hf2P1Sb1   [HEX,HEX,hP8] (STD_PRIM doi:1
   1.00000000000000     
     1.9032970854742928   -3.2965893817408709    0.0000000000000000
     1.9032970854742928    3.2965893817408709    0.0000000000000000
     0.0000000000000000    0.0000000000000000   13.1997462381851527
   4   2   2
Direct
  0.3333077450095416  0.6666922549904584  0.1019794965650647
  0.6666922549904584  0.3333077450095416  0.6019794965650647
  0.6666922549904584  0.3333077450095416  0.8980205034349353
  0.3333077450095416  0.6666922549904584  0.3980205034349353
  0.0000000000000000  0.0000000000000000  0.0000000000000000
  0.0000000000000000  0.0000000000000000  0.5000000000000000
  0.3333079311385845  0.6666920688614155  0.7500000000000000
  0.6666920688614155  0.3333079311385845  0.2500000000000000
 
  0.00000000E+00  0.00000000E+00  0.00000000E+00
  0.00000000E+00  0.00000000E+00  0.00000000E+00
  0.00000000E+00  0.00000000E+00  0.00000000E+00
  0.00000000E+00  0.00000000E+00  0.00000000E+00
  0.00000000E+00  0.00000000E+00  0.00000000E+00
  0.00000000E+00  0.00000000E+00  0.00000000E+00
  0.00000000E+00  0.00000000E+00  0.00000000E+00
  0.00000000E+00  0.00000000E+00  0.00000000E+00
