Ho1Ir1Si3   [BCT,BCT2,tI10] (STD_PRIM do
   1.00000000000000     
    -2.0856444773640774    2.0856444773640774    4.8726530600508458
     2.0856444773640774   -2.0856444773640774    4.8726530600508458
     2.0856444773640774    2.0856444773640774   -4.8726530600508458
   1   1   3
Direct
  0.0011289128080205  0.0011289128080205 -0.0000000000000000
  0.3478646280294945  0.3478646280294945  0.0000000000000000
  0.5859567275421798  0.5859567275421798  0.0000000000000000
  0.7355248658101520  0.2355248658101520  0.5000000000000000
  0.2355248658101520  0.7355248658101520  0.5000000000000000
 
  0.00000000E+00  0.00000000E+00  0.00000000E+00
  0.00000000E+00  0.00000000E+00  0.00000000E+00
  0.00000000E+00  0.00000000E+00  0.00000000E+00
  0.00000000E+00  0.00000000E+00  0.00000000E+00
  0.00000000E+00  0.00000000E+00  0.00000000E+00
