Ag3As1O4   [CUB,CUB,cP16] (STD_PRIM doi:
   1.00000000000000     
     6.2539291672781303   -0.0000000000000000   -0.0000000000000000
    -0.0000000000000000    6.2539291672781303   -0.0000000000000000
     0.0000000000000000    0.0000000000000000    6.2539291672781303
   6   2   8
Direct
  0.2500000000000000 -0.0000000000000000  0.5000000000000000
  0.7500000000000000  0.0000000000000000  0.5000000000000000
  0.5000000000000000  0.2500000000000000  0.0000000000000000
  0.5000000000000000  0.7500000000000000 -0.0000000000000000
 -0.0000000000000000  0.5000000000000000  0.2500000000000000
  0.0000000000000000  0.5000000000000000  0.7500000000000000
  0.0000000000000000 -0.0000000000000000  0.0000000000000000
  0.5000000000000000  0.5000000000000000  0.5000000000000000
  0.3398139848605181  0.3398139848605181  0.3398139848605181
  0.6601860151394819  0.6601860151394819  0.3398139848605181
  0.6601860151394819  0.3398139848605181  0.6601860151394819
  0.3398139848605181  0.6601860151394819  0.6601860151394819
  0.8398139848605181  0.8398139848605181  0.8398139848605181
  0.1601860151394819  0.1601860151394819  0.8398139848605181
  0.8398139848605181  0.1601860151394819  0.1601860151394819
  0.1601860151394819  0.8398139848605181  0.1601860151394819
 
  0.00000000E+00  0.00000000E+00  0.00000000E+00
  0.00000000E+00  0.00000000E+00  0.00000000E+00
  0.00000000E+00  0.00000000E+00  0.00000000E+00
  0.00000000E+00  0.00000000E+00  0.00000000E+00
  0.00000000E+00  0.00000000E+00  0.00000000E+00
  0.00000000E+00  0.00000000E+00  0.00000000E+00
  0.00000000E+00  0.00000000E+00  0.00000000E+00
  0.00000000E+00  0.00000000E+00  0.00000000E+00
  0.00000000E+00  0.00000000E+00  0.00000000E+00
  0.00000000E+00  0.00000000E+00  0.00000000E+00
  0.00000000E+00  0.00000000E+00  0.00000000E+00
  0.00000000E+00  0.00000000E+00  0.00000000E+00
  0.00000000E+00  0.00000000E+00  0.00000000E+00
  0.00000000E+00  0.00000000E+00  0.00000000E+00
  0.00000000E+00  0.00000000E+00  0.00000000E+00
  0.00000000E+00  0.00000000E+00  0.00000000E+00
