Ho2In1Ni2   [ORCC,ORCC,oS10] (STD_PRIM d
   1.00000000000000     
     1.9525461387710994   -7.1122273723869958    0.0000000000000000
     1.9525461387710994    7.1122273723869958    0.0000000000000000
     0.0000000000000000    0.0000000000000000    3.5700150597260181
   2   1   2
Direct
  0.6400130763473680  0.3599869236526318  0.5000000000000000
  0.3599869236526318  0.6400130763473680  0.5000000000000000
 -0.0000000000000000  0.0000000000000000  0.0000000000000000
  0.8031295628894084  0.1968704371105913  0.0000000000000000
  0.1968704371105913  0.8031295628894084 -0.0000000000000000
 
  0.00000000E+00  0.00000000E+00  0.00000000E+00
  0.00000000E+00  0.00000000E+00  0.00000000E+00
  0.00000000E+00  0.00000000E+00  0.00000000E+00
  0.00000000E+00  0.00000000E+00  0.00000000E+00
  0.00000000E+00  0.00000000E+00  0.00000000E+00
