Al2Au2Th1   [TET,TET,tP10] (STD_PRIM doi
   1.00000000000000     
     4.4431013973247007   -0.0000000000000000    0.0000000000000000
    -0.0000000000000000    4.4431013973247007    0.0000000000000000
     0.0000000000000000   -0.0000000000000000   10.4814930094153542
   4   4   2
Direct
  0.7500000000000000  0.2500000000000000  0.5000000000000000
  0.2500000000000000  0.7500000000000000  0.5000000000000000
  0.2500000000000000  0.2500000000000000  0.1309604336730689
  0.7500000000000000  0.7500000000000000  0.8690395663269310
  0.7500000000000000  0.2500000000000000  0.0000000000000000
  0.2500000000000000  0.7500000000000000 -0.0000000000000000
  0.2500000000000000  0.2500000000000000  0.3730120566055354
  0.7500000000000000  0.7500000000000000  0.6269879433944646
  0.2500000000000000  0.2500000000000000  0.7508893990266952
  0.7500000000000000  0.7500000000000000  0.2491106009733048
 
  0.00000000E+00  0.00000000E+00  0.00000000E+00
  0.00000000E+00  0.00000000E+00  0.00000000E+00
  0.00000000E+00  0.00000000E+00  0.00000000E+00
  0.00000000E+00  0.00000000E+00  0.00000000E+00
  0.00000000E+00  0.00000000E+00  0.00000000E+00
  0.00000000E+00  0.00000000E+00  0.00000000E+00
  0.00000000E+00  0.00000000E+00  0.00000000E+00
  0.00000000E+00  0.00000000E+00  0.00000000E+00
  0.00000000E+00  0.00000000E+00  0.00000000E+00
  0.00000000E+00  0.00000000E+00  0.00000000E+00
