C1Dy3Tl1   [CUB,CUB,cP5] (STD_PRIM doi:1
   1.00000000000000     
     5.6149653500747254    0.0000000000000000   -0.0000000000000000
    -0.0000000000000000    5.6149653500747254   -0.0000000000000000
     0.0000000000000000    0.0000000000000000    5.6149653500747254
   1   3   1
Direct
  0.0000000000000000  0.0000000000000000  0.0000000000000000
  0.0000000000000000  0.5000000000000000  0.5000000000000000
  0.5000000000000000  0.0000000000000000  0.5000000000000000
  0.5000000000000000  0.5000000000000000  0.0000000000000000
  0.5000000000000000  0.5000000000000000  0.5000000000000000
 
  0.00000000E+00  0.00000000E+00  0.00000000E+00
  0.00000000E+00  0.00000000E+00  0.00000000E+00
  0.00000000E+00  0.00000000E+00  0.00000000E+00
  0.00000000E+00  0.00000000E+00  0.00000000E+00
  0.00000000E+00  0.00000000E+00  0.00000000E+00
