Ni1Pt1   [TET,TET,tP2] (STD_PRIM doi:10.
   1.00000000000000     
     2.7698415763450734    0.0000000000000000   -0.0000000000000000
     0.0000000000000000    2.7698415763450734    0.0000000000000000
     0.0000000000000000   -0.0000000000000000    3.5839302134697970
   1   1
Direct
  0.0000000000000000  0.0000000000000000  0.0000000000000000
  0.5000000000000000  0.5000000000000000  0.5000000000000000
 
  0.00000000E+00  0.00000000E+00  0.00000000E+00
  0.00000000E+00  0.00000000E+00  0.00000000E+00
