Ca1Ge2Rh2   [BCT,BCT2,tI10] (STD_PRIM do
   1.00000000000000     
    -2.0884823968823887    2.0884823968823887    5.2078472182328159
     2.0884823968823887   -2.0884823968823887    5.2078472182328159
     2.0884823968823887    2.0884823968823887   -5.2078472182328159
   1   2   2
Direct
 -0.0000000000000000  0.0000000000000000  0.0000000000000000
  0.3732294373802030  0.3732294373802030  0.0000000000000000
  0.6267705626197970  0.6267705626197970 -0.0000000000000000
  0.7500000000000000  0.2500000000000000  0.5000000000000000
  0.2500000000000000  0.7500000000000000  0.5000000000000000
 
  0.00000000E+00  0.00000000E+00  0.00000000E+00
  0.00000000E+00  0.00000000E+00  0.00000000E+00
  0.00000000E+00  0.00000000E+00  0.00000000E+00
  0.00000000E+00  0.00000000E+00  0.00000000E+00
  0.00000000E+00  0.00000000E+00  0.00000000E+00
