Ba1Li1Sb1   [HEX,HEX,hP6] (STD_PRIM doi:
   1.00000000000000     
     2.4728279566509186   -4.2830636592961229   -0.0000000000000000
     2.4727520865831125    4.2830198556920509    0.0000000000000000
     0.0000000000000000    0.0000000000000000    9.1959142930331073
   2   2   2
Direct
  0.0000000000000000  0.0000000000000000 -0.0000000000000000
 -0.0000000000000000 -0.0000000000000000  0.5000000000000000
  0.6666786977901130  0.3333573955802260  0.2500000000000000
  0.3333213022098870  0.6666426044197741  0.7500000000000000
  0.3333292160109711  0.6666584320219351  0.2500000000000000
  0.6666707839890290  0.3333415679780650  0.7500000000000000
 
  0.00000000E+00  0.00000000E+00  0.00000000E+00
  0.00000000E+00  0.00000000E+00  0.00000000E+00
  0.00000000E+00  0.00000000E+00  0.00000000E+00
  0.00000000E+00  0.00000000E+00  0.00000000E+00
  0.00000000E+00  0.00000000E+00  0.00000000E+00
  0.00000000E+00  0.00000000E+00  0.00000000E+00
