Hg2Ho1   [HEX,HEX,hP3] (STD_PRIM doi:10.
   1.00000000000000     
     2.4697951552216866   -4.2778106931314248    0.0000000000000000
     2.4694555939839735    4.2776146473594245    0.0000000000000000
     0.0000000000000000    0.0000000000000000    3.4153423559492513
   2   1
Direct
  0.6666596225969172  0.3333192451938274  0.5000000000000000
  0.3333403774030828  0.6666807548061726  0.5000000000000000
  0.0000000000000000  0.0000000000000000  0.0000000000000000
 
  0.00000000E+00  0.00000000E+00  0.00000000E+00
  0.00000000E+00  0.00000000E+00  0.00000000E+00
  0.00000000E+00  0.00000000E+00  0.00000000E+00
