O6Rh2U1   [TET,TET,tP18] (STD_PRIM doi:1
   1.00000000000000     
     4.8464007768949946    0.0000000000000000    0.0000000000000000
     0.0000000000000000    4.8464007768949946    0.0000000000000000
     0.0000000000000000    0.0000000000000000    9.4968465034988672
  12   4   2
Direct
  0.3130367105893553  0.3130367105893553  0.0000000000000000
  0.6869632894106448  0.6869632894106448  0.0000000000000000
  0.1869632894106447  0.8130367105893552  0.5000000000000000
  0.8130367105893552  0.1869632894106447  0.5000000000000000
  0.2999551265068006  0.2999551265068006  0.3334902455076672
  0.7000448734931998  0.7000448734931998  0.3334902455076672
  0.2000448734931995  0.7999551265068002  0.8334902455076674
  0.7999551265068002  0.2000448734931995  0.8334902455076674
  0.2000448734931995  0.7999551265068002  0.1665097544923327
  0.7999551265068002  0.2000448734931995  0.1665097544923327
  0.2999551265068006  0.2999551265068006  0.6665097544923326
  0.7000448734931998  0.7000448734931998  0.6665097544923326
 -0.0000000000000000  0.0000000000000000  0.3318481003272718
  0.5000000000000000  0.5000000000000000  0.8318481003272717
  0.5000000000000000  0.5000000000000000  0.1681518996727282
  0.0000000000000000 -0.0000000000000000  0.6681518996727283
 -0.0000000000000000  0.0000000000000000  0.0000000000000000
  0.5000000000000000  0.5000000000000000  0.5000000000000000
 
  0.00000000E+00  0.00000000E+00  0.00000000E+00
  0.00000000E+00  0.00000000E+00  0.00000000E+00
  0.00000000E+00  0.00000000E+00  0.00000000E+00
  0.00000000E+00  0.00000000E+00  0.00000000E+00
  0.00000000E+00  0.00000000E+00  0.00000000E+00
  0.00000000E+00  0.00000000E+00  0.00000000E+00
  0.00000000E+00  0.00000000E+00  0.00000000E+00
  0.00000000E+00  0.00000000E+00  0.00000000E+00
  0.00000000E+00  0.00000000E+00  0.00000000E+00
  0.00000000E+00  0.00000000E+00  0.00000000E+00
  0.00000000E+00  0.00000000E+00  0.00000000E+00
  0.00000000E+00  0.00000000E+00  0.00000000E+00
  0.00000000E+00  0.00000000E+00  0.00000000E+00
  0.00000000E+00  0.00000000E+00  0.00000000E+00
  0.00000000E+00  0.00000000E+00  0.00000000E+00
  0.00000000E+00  0.00000000E+00  0.00000000E+00
  0.00000000E+00  0.00000000E+00  0.00000000E+00
  0.00000000E+00  0.00000000E+00  0.00000000E+00
