Dy3Rh1   [ORC,ORC,oP16] (STD_PRIM doi:10
   1.00000000000000     
     6.2472770298465958    0.0000000000000000    0.0000000000000000
    -0.0000000000000000    7.1091123713896867    0.0000000000000000
     0.0000000000000000    0.0000000000000000    9.5217468752264800
  12   4
Direct
  0.8297465069208230  0.1778022798069079  0.9357231246537160
  0.3297465069208230  0.3221977201930922  0.0642768753462841
  0.1702534930791770  0.8221977201930921  0.4357231246537160
  0.6702534930791770  0.6778022798069079  0.5642768753462840
  0.1702534930791770  0.8221977201930921  0.0642768753462841
  0.6702534930791770  0.6778022798069079  0.9357231246537160
  0.8297465069208230  0.1778022798069079  0.5642768753462840
  0.3297465069208230  0.3221977201930922  0.4357231246537160
  0.3590537929372949  0.0353549718121194  0.7500000000000000
  0.8590537929372950  0.4646450281878806  0.2500000000000000
  0.6409462070627050  0.9646450281878806  0.2500000000000000
  0.1409462070627051  0.5353549718121194  0.7500000000000000
  0.5605792237900566  0.3805109218149396  0.7500000000000000
  0.0605792237900566  0.1194890781850603  0.2500000000000000
  0.4394207762099434  0.6194890781850603  0.2500000000000000
  0.9394207762099434  0.8805109218149397  0.7500000000000000
 
  0.00000000E+00  0.00000000E+00  0.00000000E+00
  0.00000000E+00  0.00000000E+00  0.00000000E+00
  0.00000000E+00  0.00000000E+00  0.00000000E+00
  0.00000000E+00  0.00000000E+00  0.00000000E+00
  0.00000000E+00  0.00000000E+00  0.00000000E+00
  0.00000000E+00  0.00000000E+00  0.00000000E+00
  0.00000000E+00  0.00000000E+00  0.00000000E+00
  0.00000000E+00  0.00000000E+00  0.00000000E+00
  0.00000000E+00  0.00000000E+00  0.00000000E+00
  0.00000000E+00  0.00000000E+00  0.00000000E+00
  0.00000000E+00  0.00000000E+00  0.00000000E+00
  0.00000000E+00  0.00000000E+00  0.00000000E+00
  0.00000000E+00  0.00000000E+00  0.00000000E+00
  0.00000000E+00  0.00000000E+00  0.00000000E+00
  0.00000000E+00  0.00000000E+00  0.00000000E+00
  0.00000000E+00  0.00000000E+00  0.00000000E+00
