Fe2W1   [HEX,HEX,hP12] (STD_PRIM doi:10.
   1.00000000000000     
     2.4658204314182068   -4.2710630364441959   -0.0000000000000000
     2.4658204314182068    4.2710630364441959    0.0000000000000000
     0.0000000000000000    0.0000000000000000    7.9714392041458195
   8   4
Direct
 -0.0000000000000000  0.0000000000000000  0.0000000000000000
  0.0000000000000000 -0.0000000000000000  0.5000000000000000
  0.1692075605419932  0.8307924394580067  0.2500000000000000
  0.1692145603148801  0.3384138340419743  0.2500000000000000
  0.6615861659580257  0.8307854396851199  0.2500000000000000
  0.8307924394580067  0.1692075605419932  0.7500000000000000
  0.8307854396851199  0.6615861659580257  0.7500000000000000
  0.3384138340419743  0.1692145603148801  0.7500000000000000
  0.3333259715499907  0.6666740284500093  0.9373260729828131
  0.6666740284500093  0.3333259715499907  0.4373260729828131
  0.6666740284500093  0.3333259715499907  0.0626739270171869
  0.3333259715499907  0.6666740284500093  0.5626739270171869
 
  0.00000000E+00  0.00000000E+00  0.00000000E+00
  0.00000000E+00  0.00000000E+00  0.00000000E+00
  0.00000000E+00  0.00000000E+00  0.00000000E+00
  0.00000000E+00  0.00000000E+00  0.00000000E+00
  0.00000000E+00  0.00000000E+00  0.00000000E+00
  0.00000000E+00  0.00000000E+00  0.00000000E+00
  0.00000000E+00  0.00000000E+00  0.00000000E+00
  0.00000000E+00  0.00000000E+00  0.00000000E+00
  0.00000000E+00  0.00000000E+00  0.00000000E+00
  0.00000000E+00  0.00000000E+00  0.00000000E+00
  0.00000000E+00  0.00000000E+00  0.00000000E+00
  0.00000000E+00  0.00000000E+00  0.00000000E+00
