I1La1   [HEX,HEX,hP4] (STD_PRIM doi:10.1
   1.00000000000000     
     1.9913324526728406   -3.4490889827901108    0.0000000000000000
     1.9913877310279691    3.4491208977633243    0.0000000000000000
     0.0000000000000000    0.0000000000000000    9.8523111745497065
   2   2
Direct
  0.6666967262024031  0.3333934524048132  0.2500000000000000
  0.3333032737975969  0.6666065475951868  0.7500000000000000
  0.0000000000000000  0.0000000000000000  0.0000000000000000
  0.0000000000000000  0.0000000000000000  0.5000000000000000
 
  0.00000000E+00  0.00000000E+00  0.00000000E+00
  0.00000000E+00  0.00000000E+00  0.00000000E+00
  0.00000000E+00  0.00000000E+00  0.00000000E+00
  0.00000000E+00  0.00000000E+00  0.00000000E+00
