I6Pt1Rb2   [FCC,FCC,cF36] (STD_PRIM doi:
   1.22474500000000     
     0.0000000000000000    4.6912367588243740    4.6912367588243740
     4.6912367588243740   -0.0000000000000000    4.6912367588243740
     4.6912367588243740    4.6912367588243740   -0.0000000000000000
   6   1   2
Direct
  0.7644366366184228  0.2355633633815772  0.2355633633815772
  0.2355633633815772  0.7644366366184228  0.7644366366184228
  0.7644366366184228  0.7644366366184228  0.2355633633815772
  0.2355633633815772  0.2355633633815772  0.7644366366184228
  0.2355633633815772  0.7644366366184228  0.2355633633815772
  0.7644366366184228  0.2355633633815772  0.7644366366184228
  0.0000000000000000  0.0000000000000000  0.0000000000000000
  0.7500000000000000  0.7500000000000000  0.7500000000000000
  0.2500000000000000  0.2500000000000000  0.2500000000000000
 
  0.00000000E+00  0.00000000E+00  0.00000000E+00
  0.00000000E+00  0.00000000E+00  0.00000000E+00
  0.00000000E+00  0.00000000E+00  0.00000000E+00
  0.00000000E+00  0.00000000E+00  0.00000000E+00
  0.00000000E+00  0.00000000E+00  0.00000000E+00
  0.00000000E+00  0.00000000E+00  0.00000000E+00
  0.00000000E+00  0.00000000E+00  0.00000000E+00
  0.00000000E+00  0.00000000E+00  0.00000000E+00
  0.00000000E+00  0.00000000E+00  0.00000000E+00
