Nd1Os4P12   [BCC,BCC,cI34] (STD_PRIM doi
   1.00000000000000     
    -4.0609484422098658    4.0609484422098658    4.0609484422098658
     4.0609484422098658   -4.0609484422098658    4.0609484422098658
     4.0609484422098658    4.0609484422098658   -4.0609484422098658
   1   4  12
Direct
  0.0000000000000000  0.0000000000000000  0.0000000000000000
  0.0000000000000000  0.0000000000000000  0.5000000000000000
  0.0000000000000000  0.5000000000000000 -0.0000000000000000
  0.5000000000000000  0.5000000000000000  0.5000000000000000
  0.5000000000000000  0.0000000000000000  0.0000000000000000
  0.1428155011395536  0.7854291473471029  0.6426136462075493
  0.8571844988604463  0.4997981450679957  0.6426136462075493
  0.1428155011395536  0.5002018549320042  0.3573863537924507
  0.8571844988604463  0.2145708526528970  0.3573863537924507
  0.6426136462075493  0.8571844988604463  0.4997981450679957
  0.6426136462075493  0.1428155011395536  0.7854291473471029
  0.3573863537924507  0.8571844988604463  0.2145708526528970
  0.3573863537924507  0.1428155011395536  0.5002018549320042
  0.2145708526528970  0.3573863537924507  0.8571844988604463
  0.5002018549320042  0.3573863537924507  0.1428155011395536
  0.4997981450679957  0.6426136462075493  0.8571844988604463
  0.7854291473471029  0.6426136462075493  0.1428155011395536
 
  0.00000000E+00  0.00000000E+00  0.00000000E+00
  0.00000000E+00  0.00000000E+00  0.00000000E+00
  0.00000000E+00  0.00000000E+00  0.00000000E+00
  0.00000000E+00  0.00000000E+00  0.00000000E+00
  0.00000000E+00  0.00000000E+00  0.00000000E+00
  0.00000000E+00  0.00000000E+00  0.00000000E+00
  0.00000000E+00  0.00000000E+00  0.00000000E+00
  0.00000000E+00  0.00000000E+00  0.00000000E+00
  0.00000000E+00  0.00000000E+00  0.00000000E+00
  0.00000000E+00  0.00000000E+00  0.00000000E+00
  0.00000000E+00  0.00000000E+00  0.00000000E+00
  0.00000000E+00  0.00000000E+00  0.00000000E+00
  0.00000000E+00  0.00000000E+00  0.00000000E+00
  0.00000000E+00  0.00000000E+00  0.00000000E+00
  0.00000000E+00  0.00000000E+00  0.00000000E+00
  0.00000000E+00  0.00000000E+00  0.00000000E+00
  0.00000000E+00  0.00000000E+00  0.00000000E+00
