N1Os2Zr4   [FCC,FCC,cF112] (STD_PRIM doi
   1.22474500000000     
     0.0000000000000000    5.0843414849113788    5.0843414849113788
     5.0843414849113788    0.0000000000000000    5.0843414849113788
     5.0843414849113788    5.0843414849113788    0.0000000000000000
   4   8  16
Direct
  0.5000000000000000  0.5000000000000000  0.5000000000000000
 -0.0000000000000000  0.5000000000000000  0.0000000000000000
  0.5000000000000000  0.5000000000000000  0.0000000000000000
  0.5000000000000000 -0.0000000000000000 -0.0000000000000000
  0.7884016789064245  0.7884016789064245  0.6347949632807334
  0.1347949632807334  0.7884016789064245  0.2884016789064245
  0.7884016789064245  0.7884016789064245  0.2884016789064245
  0.7884016789064245  0.1347949632807334  0.2884016789064245
  0.8652050367192666  0.2115983210935754  0.7115983210935755
  0.2115983210935754  0.2115983210935754  0.3652050367192666
  0.2115983210935754  0.2115983210935754  0.7115983210935755
  0.2115983210935754  0.8652050367192666  0.7115983210935755
 -0.0000000000000000  0.0000000000000000  0.0000000000000000
  0.5000000000000000 -0.0000000000000000  0.5000000000000000
  0.0000000000000000 -0.0000000000000000  0.5000000000000000
 -0.0000000000000000  0.5000000000000000  0.5000000000000000
  0.5602640246887745  0.1897359753112256  0.6897359753112255
  0.1897359753112256  0.5602640246887745  0.0602640246887744
  0.5602640246887745  0.5602640246887745  0.6897359753112255
  0.1897359753112256  0.1897359753112256  0.0602640246887744
  0.1897359753112256  0.5602640246887745  0.6897359753112255
  0.5602640246887745  0.1897359753112256  0.0602640246887744
  0.8102640246887745  0.8102640246887745  0.9397359753112255
  0.4397359753112255  0.4397359753112255  0.3102640246887745
  0.8102640246887745  0.4397359753112255  0.9397359753112255
  0.4397359753112255  0.8102640246887745  0.3102640246887745
  0.8102640246887745  0.4397359753112255  0.3102640246887745
  0.4397359753112255  0.8102640246887745  0.9397359753112255
 
  0.00000000E+00  0.00000000E+00  0.00000000E+00
  0.00000000E+00  0.00000000E+00  0.00000000E+00
  0.00000000E+00  0.00000000E+00  0.00000000E+00
  0.00000000E+00  0.00000000E+00  0.00000000E+00
  0.00000000E+00  0.00000000E+00  0.00000000E+00
  0.00000000E+00  0.00000000E+00  0.00000000E+00
  0.00000000E+00  0.00000000E+00  0.00000000E+00
  0.00000000E+00  0.00000000E+00  0.00000000E+00
  0.00000000E+00  0.00000000E+00  0.00000000E+00
  0.00000000E+00  0.00000000E+00  0.00000000E+00
  0.00000000E+00  0.00000000E+00  0.00000000E+00
  0.00000000E+00  0.00000000E+00  0.00000000E+00
  0.00000000E+00  0.00000000E+00  0.00000000E+00
  0.00000000E+00  0.00000000E+00  0.00000000E+00
  0.00000000E+00  0.00000000E+00  0.00000000E+00
  0.00000000E+00  0.00000000E+00  0.00000000E+00
  0.00000000E+00  0.00000000E+00  0.00000000E+00
  0.00000000E+00  0.00000000E+00  0.00000000E+00
  0.00000000E+00  0.00000000E+00  0.00000000E+00
  0.00000000E+00  0.00000000E+00  0.00000000E+00
  0.00000000E+00  0.00000000E+00  0.00000000E+00
  0.00000000E+00  0.00000000E+00  0.00000000E+00
  0.00000000E+00  0.00000000E+00  0.00000000E+00
  0.00000000E+00  0.00000000E+00  0.00000000E+00
  0.00000000E+00  0.00000000E+00  0.00000000E+00
  0.00000000E+00  0.00000000E+00  0.00000000E+00
  0.00000000E+00  0.00000000E+00  0.00000000E+00
  0.00000000E+00  0.00000000E+00  0.00000000E+00
