Au1Cd1La1   [HEX,HEX,hP9] (STD_PRIM doi:
   1.00000000000000     
     4.0007211660535305   -6.9294523265209209    0.0000000000000000
     4.0006642127285685    6.9294194445034227    0.0000000000000000
     0.0000000000000000    0.0000000000000000    4.2224378607751527
   3   3   3
Direct
  0.3333115484632492  0.6666212535819424  0.5000000000000000
  0.6666902948813069  0.3333787464180576  0.5000000000000000
  0.9999997734550986  0.0000000000000000  0.0000000000000000
  0.9999960512718590  0.2492514846222366  0.5000000000000000
  0.7507445666496153  0.7507485153777634  0.5000000000000000
  0.2492584169598061  0.0000000000000000  0.5000000000000000
  0.0000019718046811  0.5908679363191978  0.0000000000000000
  0.4091340354854833  0.4091320636808021  0.0000000000000000
  0.5908633410289075  0.0000000000000000  0.0000000000000000
 
  0.00000000E+00  0.00000000E+00  0.00000000E+00
  0.00000000E+00  0.00000000E+00  0.00000000E+00
  0.00000000E+00  0.00000000E+00  0.00000000E+00
  0.00000000E+00  0.00000000E+00  0.00000000E+00
  0.00000000E+00  0.00000000E+00  0.00000000E+00
  0.00000000E+00  0.00000000E+00  0.00000000E+00
  0.00000000E+00  0.00000000E+00  0.00000000E+00
  0.00000000E+00  0.00000000E+00  0.00000000E+00
  0.00000000E+00  0.00000000E+00  0.00000000E+00
