Ca1Ga2P2   [HEX,HEX,hP10] (STD_PRIM doi:
   1.00000000000000     
     1.9304895920124945   -3.3437060568485566    0.0000000000000000
     1.9303852742219434    3.3436458289441009    0.0000000000000000
     0.0000000000000000   -0.0000000000000000   16.5344914800312459
   2   4   4
Direct
  0.0000000000000000  0.0000000000000000  0.0000000000000000
  0.0000000000000000  0.0000000000000000  0.5000000000000000
  0.6666770619181503  0.3333541238362935  0.1751917508008390
  0.3333229380818497  0.6666458761637064  0.6751917508008390
  0.3333229380818497  0.6666458761637064  0.8248082491991610
  0.6666770619181503  0.3333541238362935  0.3248082491991610
  0.6666708355358442  0.3333416710716813  0.6146647705437968
  0.3333291644641558  0.6666583289283188  0.1146647705437968
  0.3333291644641558  0.6666583289283188  0.3853352294562032
  0.6666708355358442  0.3333416710716813  0.8853352294562032
 
  0.00000000E+00  0.00000000E+00  0.00000000E+00
  0.00000000E+00  0.00000000E+00  0.00000000E+00
  0.00000000E+00  0.00000000E+00  0.00000000E+00
  0.00000000E+00  0.00000000E+00  0.00000000E+00
  0.00000000E+00  0.00000000E+00  0.00000000E+00
  0.00000000E+00  0.00000000E+00  0.00000000E+00
  0.00000000E+00  0.00000000E+00  0.00000000E+00
  0.00000000E+00  0.00000000E+00  0.00000000E+00
  0.00000000E+00  0.00000000E+00  0.00000000E+00
  0.00000000E+00  0.00000000E+00  0.00000000E+00
