Ni2Ta1   [BCT,BCT2,tI6] (STD_PRIM doi:10
   1.00000000000000     
    -1.5869161787361370    1.5869161787361370    3.9240091077508876
     1.5869161787361370   -1.5869161787361370    3.9240091077508876
     1.5869161787361370    1.5869161787361370   -3.9240091077508876
   2   1
Direct
  0.3334281768874845  0.3334281768874845 -0.0000000000000000
  0.6665718231125154  0.6665718231125154  0.0000000000000000
 -0.0000000000000000 -0.0000000000000000 -0.0000000000000000
 
  0.00000000E+00  0.00000000E+00  0.00000000E+00
  0.00000000E+00  0.00000000E+00  0.00000000E+00
  0.00000000E+00  0.00000000E+00  0.00000000E+00
