C1Sn1Ti2   [HEX,HEX,hP8] (STD_PRIM doi:1
   1.00000000000000     
     1.6191115677844021   -2.8043623768844381    0.0000000000000000
     1.6191115677844021    2.8043623768844381    0.0000000000000000
     0.0000000000000000    0.0000000000000000   13.9487085218824589
   2   2   4
Direct
  0.0000000000000000  0.0000000000000000  0.0000000000000000
  0.0000000000000000  0.0000000000000000  0.5000000000000000
  0.3333132041800155  0.6666867958199845  0.7500000000000000
  0.6666867958199845  0.3333132041800155  0.2500000000000000
  0.3333294136506595  0.6666705863493405  0.0807705082668591
  0.6666705863493405  0.3333294136506595  0.5807705082668591
  0.6666705863493405  0.3333294136506595  0.9192294917331409
  0.3333294136506595  0.6666705863493405  0.4192294917331409
 
  0.00000000E+00  0.00000000E+00  0.00000000E+00
  0.00000000E+00  0.00000000E+00  0.00000000E+00
  0.00000000E+00  0.00000000E+00  0.00000000E+00
  0.00000000E+00  0.00000000E+00  0.00000000E+00
  0.00000000E+00  0.00000000E+00  0.00000000E+00
  0.00000000E+00  0.00000000E+00  0.00000000E+00
  0.00000000E+00  0.00000000E+00  0.00000000E+00
  0.00000000E+00  0.00000000E+00  0.00000000E+00
