Er1Pd1Tl1   [HEX,HEX,hP9] (STD_PRIM doi:
   1.00000000000000     
     3.8988133445618280   -6.7528938925143907    0.0000000000000000
     3.8988133445618280    6.7528938925143907    0.0000000000000000
     0.0000000000000000    0.0000000000000000    3.7741337747366268
   3   3   3
Direct
  0.5949638480173113 -0.0000003780833983  0.5000000000000000
 -0.0000003780833983  0.5949638480173113  0.5000000000000000
  0.4050418538212943  0.4050418538212943  0.5000000000000000
  0.9999866404959176  0.9999866404959176  0.5000000000000000
  0.3333351543823470  0.6666702913952601  0.0000000000000000
  0.6666702913952601  0.3333351543823470  0.0000000000000000
  0.2664408990893176  0.0000048766738200  0.0000000000000000
  0.0000048766738200  0.2664408990893176  0.0000000000000000
  0.7335568142081236  0.7335568142081236  0.0000000000000000
 
  0.00000000E+00  0.00000000E+00  0.00000000E+00
  0.00000000E+00  0.00000000E+00  0.00000000E+00
  0.00000000E+00  0.00000000E+00  0.00000000E+00
  0.00000000E+00  0.00000000E+00  0.00000000E+00
  0.00000000E+00  0.00000000E+00  0.00000000E+00
  0.00000000E+00  0.00000000E+00  0.00000000E+00
  0.00000000E+00  0.00000000E+00  0.00000000E+00
  0.00000000E+00  0.00000000E+00  0.00000000E+00
  0.00000000E+00  0.00000000E+00  0.00000000E+00
