Ce1Ga1Ni1   [HEX,HEX,hP9] (STD_PRIM doi:
   1.00000000000000     
     3.4476727673367509   -5.9721431208125493    0.0000000000000000
     3.4476727673367509    5.9721431208125493    0.0000000000000000
     0.0000000000000000    0.0000000000000000    3.9565451248727470
   3   3   3
Direct
  0.5798753361638875  0.9999893268069535  0.5000000000000000
  0.9999893268069535  0.5798753361638875  0.5000000000000000
  0.4201179591656204  0.4201179591656204  0.5000000000000000
  0.2365197550738760  0.9999911517104070  0.0000000000000000
  0.9999911517104070  0.2365197550738760  0.0000000000000000
  0.7634927553931503  0.7634927553931503  0.0000000000000000
  0.9999903412148943  0.9999903412148943  0.5000000000000000
  0.3333213165173007  0.6667020579539101  0.0000000000000000
  0.6667020579539101  0.3333213165173007  0.0000000000000000
 
  0.00000000E+00  0.00000000E+00  0.00000000E+00
  0.00000000E+00  0.00000000E+00  0.00000000E+00
  0.00000000E+00  0.00000000E+00  0.00000000E+00
  0.00000000E+00  0.00000000E+00  0.00000000E+00
  0.00000000E+00  0.00000000E+00  0.00000000E+00
  0.00000000E+00  0.00000000E+00  0.00000000E+00
  0.00000000E+00  0.00000000E+00  0.00000000E+00
  0.00000000E+00  0.00000000E+00  0.00000000E+00
  0.00000000E+00  0.00000000E+00  0.00000000E+00
