Au1Ca3   [ORC,ORC,oP16] (STD_PRIM doi:10
   1.00000000000000     
     6.8324155754706730    0.0000000000000000    0.0000000000000000
     0.0000000000000000    7.8310947420425316    0.0000000000000000
     0.0000000000000000    0.0000000000000000    9.9766518028232518
   4  12
Direct
  0.0514246863185292  0.3784812358015797  0.7500000000000000
  0.5514246863185293  0.1215187641984204  0.2500000000000000
  0.9485753136814707  0.6215187641984204  0.2500000000000000
  0.4485753136814707  0.8784812358015796  0.7500000000000000
  0.8553381036891589  0.0360646946412556  0.7500000000000000
  0.3553381036891590  0.4639353053587444  0.2500000000000000
  0.1446618963108411  0.9639353053587444  0.2500000000000000
  0.6446618963108411  0.5360646946412556  0.7500000000000000
  0.3369854658717129  0.1759220918068761  0.9363609084816126
  0.8369854658717129  0.3240779081931239  0.0636390915183875
  0.6630145341282871  0.8240779081931239  0.4363609084816125
  0.1630145341282871  0.6759220918068761  0.5636390915183874
  0.6630145341282871  0.8240779081931239  0.0636390915183875
  0.1630145341282871  0.6759220918068761  0.9363609084816126
  0.3369854658717129  0.1759220918068761  0.5636390915183874
  0.8369854658717129  0.3240779081931239  0.4363609084816125
 
  0.00000000E+00  0.00000000E+00  0.00000000E+00
  0.00000000E+00  0.00000000E+00  0.00000000E+00
  0.00000000E+00  0.00000000E+00  0.00000000E+00
  0.00000000E+00  0.00000000E+00  0.00000000E+00
  0.00000000E+00  0.00000000E+00  0.00000000E+00
  0.00000000E+00  0.00000000E+00  0.00000000E+00
  0.00000000E+00  0.00000000E+00  0.00000000E+00
  0.00000000E+00  0.00000000E+00  0.00000000E+00
  0.00000000E+00  0.00000000E+00  0.00000000E+00
  0.00000000E+00  0.00000000E+00  0.00000000E+00
  0.00000000E+00  0.00000000E+00  0.00000000E+00
  0.00000000E+00  0.00000000E+00  0.00000000E+00
  0.00000000E+00  0.00000000E+00  0.00000000E+00
  0.00000000E+00  0.00000000E+00  0.00000000E+00
  0.00000000E+00  0.00000000E+00  0.00000000E+00
  0.00000000E+00  0.00000000E+00  0.00000000E+00
