Pt1Sc1Si1   [ORC,ORC,oP12] (STD_PRIM doi
   1.00000000000000     
     4.1717171740253658    0.0000000000000000    0.0000000000000000
    -0.0000000000000000    6.6551931573400394    0.0000000000000000
     0.0000000000000000    0.0000000000000000    7.3287556196738590
   4   4   4
Direct
  0.2500000000000000  0.1983779226994866  0.9162994808698781
  0.7500000000000000  0.3016220773005134  0.4162994808698782
  0.7500000000000000  0.8016220773005135  0.0837005191301218
  0.2500000000000000  0.6983779226994865  0.5837005191301219
  0.2500000000000000  0.9993947891813768  0.2996008027959283
  0.7500000000000000  0.5006052108186232  0.7996008027959284
  0.7500000000000000  0.0006052108186232  0.7003991972040716
  0.2500000000000000  0.4993947891813769  0.2003991972040717
  0.2500000000000000  0.3068202647830986  0.5920811275199845
  0.7500000000000000  0.1931797352169014  0.0920811275199845
  0.7500000000000000  0.6931797352169015  0.4079188724800155
  0.2500000000000000  0.8068202647830985  0.9079188724800155
 
  0.00000000E+00  0.00000000E+00  0.00000000E+00
  0.00000000E+00  0.00000000E+00  0.00000000E+00
  0.00000000E+00  0.00000000E+00  0.00000000E+00
  0.00000000E+00  0.00000000E+00  0.00000000E+00
  0.00000000E+00  0.00000000E+00  0.00000000E+00
  0.00000000E+00  0.00000000E+00  0.00000000E+00
  0.00000000E+00  0.00000000E+00  0.00000000E+00
  0.00000000E+00  0.00000000E+00  0.00000000E+00
  0.00000000E+00  0.00000000E+00  0.00000000E+00
  0.00000000E+00  0.00000000E+00  0.00000000E+00
  0.00000000E+00  0.00000000E+00  0.00000000E+00
  0.00000000E+00  0.00000000E+00  0.00000000E+00
