Cs1Cu1F4   [BCT,BCT2,tI24] (STD_PRIM doi
   1.00000000000000     
    -3.1783274383049300    3.1783274383049300    6.0881033745773054
     3.1783274383049300   -3.1783274383049300    6.0881033745773054
     3.1783274383049300    3.1783274383049300   -6.0881033745773054
   2   2   8
Direct
  0.7500000000000000  0.7500000000000000 -0.0000000000000000
  0.2500000000000000  0.2500000000000000 -0.0000000000000000
 -0.0000000000000000  0.5000000000000000  0.5000000000000000
  0.5000000000000000 -0.0000000000000000  0.5000000000000000
  0.0373021368108553  0.5373021368108554  0.7803907897971688
  0.7569113470136793  0.2569113470136793  0.2196092102028312
  0.2569113470136793  0.0373021368108553  0.5000000000000000
  0.5373021368108554  0.7569113470136793  0.5000000000000000
  0.4626978631891447  0.2430886529863206  0.5000000000000000
  0.7430886529863207  0.9626978631891446  0.5000000000000000
  0.2430886529863206  0.7430886529863207  0.7803907897971688
  0.9626978631891446  0.4626978631891447  0.2196092102028312
 
  0.00000000E+00  0.00000000E+00  0.00000000E+00
  0.00000000E+00  0.00000000E+00  0.00000000E+00
  0.00000000E+00  0.00000000E+00  0.00000000E+00
  0.00000000E+00  0.00000000E+00  0.00000000E+00
  0.00000000E+00  0.00000000E+00  0.00000000E+00
  0.00000000E+00  0.00000000E+00  0.00000000E+00
  0.00000000E+00  0.00000000E+00  0.00000000E+00
  0.00000000E+00  0.00000000E+00  0.00000000E+00
  0.00000000E+00  0.00000000E+00  0.00000000E+00
  0.00000000E+00  0.00000000E+00  0.00000000E+00
  0.00000000E+00  0.00000000E+00  0.00000000E+00
  0.00000000E+00  0.00000000E+00  0.00000000E+00
