Cd1S1   [HEX,HEX,hP4] (STD_PRIM doi:10.1
   1.00000000000000     
     2.0951539158902261   -3.6285347489898188    0.0000000000000000
     2.0951539158902261    3.6285347489898188    0.0000000000000000
     0.0000000000000000    0.0000000000000000    6.8060955294700598
   2   2
Direct
  0.3333123637917765  0.6666876362082235  0.9999903945598376
  0.6666876362082235  0.3333123637917765  0.4999903945598376
  0.3333135105800906  0.6666864894199094  0.3770096054401648
  0.6666864894199094  0.3333135105800906  0.8770096054401648
 
  0.00000000E+00  0.00000000E+00  0.00000000E+00
  0.00000000E+00  0.00000000E+00  0.00000000E+00
  0.00000000E+00  0.00000000E+00  0.00000000E+00
  0.00000000E+00  0.00000000E+00  0.00000000E+00
