Er1Pt2Si2   [TET,TET,tP10] (STD_PRIM doi
   1.00000000000000     
     4.1753564774256242   -0.0000000000000000    0.0000000000000000
    -0.0000000000000000    4.1753564774256242   -0.0000000000000000
    -0.0000000000000000   -0.0000000000000000    9.7761528222269209
   2   4   4
Direct
  0.2500000000000000  0.2500000000000000  0.7468635383450404
  0.7500000000000000  0.7500000000000000  0.2531364616549597
  0.7500000000000000  0.2500000000000000 -0.0000000000000000
  0.2500000000000000  0.7500000000000000  0.0000000000000000
  0.2500000000000000  0.2500000000000000  0.3753711666782671
  0.7500000000000000  0.7500000000000000  0.6246288333217329
  0.7500000000000000  0.2500000000000000  0.5000000000000000
  0.2500000000000000  0.7500000000000000  0.5000000000000000
  0.2500000000000000  0.2500000000000000  0.1328436952180584
  0.7500000000000000  0.7500000000000000  0.8671563047819416
 
  0.00000000E+00  0.00000000E+00  0.00000000E+00
  0.00000000E+00  0.00000000E+00  0.00000000E+00
  0.00000000E+00  0.00000000E+00  0.00000000E+00
  0.00000000E+00  0.00000000E+00  0.00000000E+00
  0.00000000E+00  0.00000000E+00  0.00000000E+00
  0.00000000E+00  0.00000000E+00  0.00000000E+00
  0.00000000E+00  0.00000000E+00  0.00000000E+00
  0.00000000E+00  0.00000000E+00  0.00000000E+00
  0.00000000E+00  0.00000000E+00  0.00000000E+00
  0.00000000E+00  0.00000000E+00  0.00000000E+00
