Ag2Sr1   [ORCI,ORCI,oI12] (STD_PRIM doi:
   1.00000000000000     
    -2.4350604688241750    3.8884631043104347    4.2013003838318896
     2.4350604688241750   -3.8884631043104347    4.2013003838318896
     2.4350604688241750    3.8884631043104347   -4.2013003838318896
   4   2
Direct
  0.2153242006326916  0.6631314090614464  0.5521927915712381
  0.6109386174902011  0.6631314090614464  0.9478072084287619
  0.3890613825097989  0.3368685909385536  0.0521927915712382
  0.7846757993673084  0.3368685909385536  0.4478072084287619
  0.2069388781008678  0.9569388781008679  0.2500000000000000
  0.7930611218991321  0.0430611218991322  0.7500000000000000
 
  0.00000000E+00  0.00000000E+00  0.00000000E+00
  0.00000000E+00  0.00000000E+00  0.00000000E+00
  0.00000000E+00  0.00000000E+00  0.00000000E+00
  0.00000000E+00  0.00000000E+00  0.00000000E+00
  0.00000000E+00  0.00000000E+00  0.00000000E+00
  0.00000000E+00  0.00000000E+00  0.00000000E+00
