B1C2N1   [ORC,ORC,oP4] (STD_PRIM doi:10.
   1.00000000000000     
     2.5388865630225039    0.0000000000000000    0.0000000000000000
     0.0000000000000000    2.5651446465954528    0.0000000000000000
     0.0000000000000000    0.0000000000000000    3.6445254962284310
   1   2   1
Direct
  0.0000000000000000  0.5000000000000000  0.8765857515553535
  0.5000000000000000  0.0000000000000000  0.3679067010173966
  0.0000000000000000  0.0000000000000000  0.1344718401221385
  0.5000000000000000  0.5000000000000000  0.6200357073051137
 
  0.00000000E+00  0.00000000E+00  0.00000000E+00
  0.00000000E+00  0.00000000E+00  0.00000000E+00
  0.00000000E+00  0.00000000E+00  0.00000000E+00
  0.00000000E+00  0.00000000E+00  0.00000000E+00
