N1Ta1   [HEX,HEX,hP6] (STD_PRIM doi:10.1
   1.00000000000000     
     2.6469030222794192   -4.5842929931023599    0.0000000000000000
     2.6469030222794192    4.5842929931023599    0.0000000000000000
     0.0000000000000000    0.0000000000000000    2.9490690136339115
   3   3
Direct
  0.5000000000000000  0.0000000000000000  0.0000000000000000
  0.0000000000000000  0.5000000000000000  0.0000000000000000
  0.5000000000000000  0.5000000000000000  0.0000000000000000
  0.0000000000000000  0.0000000000000000  0.0000000000000000
  0.3333342506285888  0.6666657493714112  0.5000000000000000
  0.6666657493714112  0.3333342506285888  0.5000000000000000
 
  0.00000000E+00  0.00000000E+00  0.00000000E+00
  0.00000000E+00  0.00000000E+00  0.00000000E+00
  0.00000000E+00  0.00000000E+00  0.00000000E+00
  0.00000000E+00  0.00000000E+00  0.00000000E+00
  0.00000000E+00  0.00000000E+00  0.00000000E+00
  0.00000000E+00  0.00000000E+00  0.00000000E+00
