Ge1Y1Zn1 #194 - (Ge1Y1Zn1_ICSD_163345) -
   1.00000000000000     
     2.1151591329512436   -3.6635929742588704    0.0000000000000000
     2.1151591329512436    3.6635929742588704    0.0000000000000000
     0.0000000000000000    0.0000000000000000   15.7017463935943482
   4   4   4
Direct
  0.3333298463325173  0.6666701536674827  0.6149204937577575
  0.6666701536674827  0.3333298463325173  0.1149204937577574
  0.6666701536674827  0.3333298463325173  0.3850795062422426
  0.3333298463325173  0.6666701536674827  0.8850795062422425
  0.0000000000000000  0.0000000000000000  0.0000000000000000
  0.0000000000000000  0.0000000000000000  0.5000000000000000
  0.0000035625298497  0.9999964374701503  0.2500000000000000
  0.9999964374701503  0.0000035625298497  0.7500000000000000
  0.3333245255857766  0.6666754744142235  0.1457879796655643
  0.6666754744142235  0.3333245255857766  0.6457879796655643
  0.6666754744142235  0.3333245255857766  0.8542120203344357
  0.3333245255857766  0.6666754744142235  0.3542120203344357
 
  0.00000000E+00  0.00000000E+00  0.00000000E+00
  0.00000000E+00  0.00000000E+00  0.00000000E+00
  0.00000000E+00  0.00000000E+00  0.00000000E+00
  0.00000000E+00  0.00000000E+00  0.00000000E+00
  0.00000000E+00  0.00000000E+00  0.00000000E+00
  0.00000000E+00  0.00000000E+00  0.00000000E+00
  0.00000000E+00  0.00000000E+00  0.00000000E+00
  0.00000000E+00  0.00000000E+00  0.00000000E+00
  0.00000000E+00  0.00000000E+00  0.00000000E+00
  0.00000000E+00  0.00000000E+00  0.00000000E+00
  0.00000000E+00  0.00000000E+00  0.00000000E+00
  0.00000000E+00  0.00000000E+00  0.00000000E+00
