Au1La1O3   [ORC,ORC,oP20] (STD_PRIM doi:
   1.00000000000000     
     4.1147164546353716    0.0000000000000000    0.0000000000000000
     0.0000000000000000    5.7715283028835414    0.0000000000000000
     0.0000000000000000    0.0000000000000000   13.2982733317054915
   4   4  12
Direct
  0.9250086075838672  0.2500000000000000  0.3291442152836205
  0.0749913924161328  0.7500000000000000  0.6708557847163795
  0.0749913924161328  0.2500000000000000  0.8291442152836205
  0.9250086075838672  0.7500000000000000  0.1708557847163795
  0.7353805397569623  0.2500000000000000  0.5817149792863933
  0.2646194602430377  0.7500000000000000  0.4182850207136139
  0.2646194602430377  0.2500000000000000  0.0817149792863861
  0.7353805397569623  0.7500000000000000  0.9182850207136067
  0.7460611617166865  0.0065416538497009  0.4209385477328733
  0.2539388382833136  0.5065416538497008  0.5790614522671267
  0.2539388382833136  0.4934583461502991  0.9209385477328733
  0.7460611617166865  0.9934583461502992  0.0790614522671267
  0.2539388382833136  0.9934583461502992  0.5790614522671267
  0.7460611617166865  0.4934583461502991  0.4209385477328733
  0.7460611617166865  0.5065416538497008  0.0790614522671267
  0.2539388382833136  0.0065416538497009  0.9209385477328733
  0.1669377004679474  0.0000000000000000  0.2500000000000000
  0.8330622995320526  0.5000000000000000  0.7500000000000000
  0.8330622995320526  0.0000000000000000  0.7500000000000000
  0.1669377004679474  0.5000000000000000  0.2500000000000000
 
  0.00000000E+00  0.00000000E+00  0.00000000E+00
  0.00000000E+00  0.00000000E+00  0.00000000E+00
  0.00000000E+00  0.00000000E+00  0.00000000E+00
  0.00000000E+00  0.00000000E+00  0.00000000E+00
  0.00000000E+00  0.00000000E+00  0.00000000E+00
  0.00000000E+00  0.00000000E+00  0.00000000E+00
  0.00000000E+00  0.00000000E+00  0.00000000E+00
  0.00000000E+00  0.00000000E+00  0.00000000E+00
  0.00000000E+00  0.00000000E+00  0.00000000E+00
  0.00000000E+00  0.00000000E+00  0.00000000E+00
  0.00000000E+00  0.00000000E+00  0.00000000E+00
  0.00000000E+00  0.00000000E+00  0.00000000E+00
  0.00000000E+00  0.00000000E+00  0.00000000E+00
  0.00000000E+00  0.00000000E+00  0.00000000E+00
  0.00000000E+00  0.00000000E+00  0.00000000E+00
  0.00000000E+00  0.00000000E+00  0.00000000E+00
  0.00000000E+00  0.00000000E+00  0.00000000E+00
  0.00000000E+00  0.00000000E+00  0.00000000E+00
  0.00000000E+00  0.00000000E+00  0.00000000E+00
  0.00000000E+00  0.00000000E+00  0.00000000E+00
