Au1Er1In1   [HEX,HEX,hP9] (STD_PRIM doi:
   1.00000000000000     
     3.8813574744006867   -6.7227216029123156    0.0000000000000000
     3.8813574744006867    6.7227216029123156    0.0000000000000000
     0.0000000000000000    0.0000000000000000    3.8999363243681406
   3   3   3
Direct
  0.3333226708461166  0.6666775731719514  0.0000000000000000
  0.6666775731719514  0.3333226708461166  0.0000000000000000
  0.9999980308287342  0.9999980308287342  0.5000000000000000
  0.5965737318631582  0.9999951487631465  0.5000000000000000
  0.9999951487631465  0.5965737318631582  0.5000000000000000
  0.4034274046181621  0.4034274046181621  0.5000000000000000
  0.2637169996462375  0.0000118006228657  0.0000000000000000
  0.0000118006228657  0.2637169996462375  0.0000000000000000
  0.7362766396396349  0.7362766396396349  0.0000000000000000
 
  0.00000000E+00  0.00000000E+00  0.00000000E+00
  0.00000000E+00  0.00000000E+00  0.00000000E+00
  0.00000000E+00  0.00000000E+00  0.00000000E+00
  0.00000000E+00  0.00000000E+00  0.00000000E+00
  0.00000000E+00  0.00000000E+00  0.00000000E+00
  0.00000000E+00  0.00000000E+00  0.00000000E+00
  0.00000000E+00  0.00000000E+00  0.00000000E+00
  0.00000000E+00  0.00000000E+00  0.00000000E+00
  0.00000000E+00  0.00000000E+00  0.00000000E+00
