As1Cu3S4   [CUB,CUB,cP8] (STD_PRIM doi:1
   1.00000000000000     
     5.3113275064360881   -0.0000000000000000    0.0000000000000000
     0.0000000000000000    5.3113275064360881   -0.0000000000000000
    -0.0000000000000000   -0.0000000000000000    5.3113275064360881
   1   3   4
Direct
 -0.0000000000000000  0.0000000000000000 -0.0000000000000000
  0.0000000000000000  0.5000000000000000  0.5000000000000000
  0.5000000000000000 -0.0000000000000000  0.5000000000000000
  0.5000000000000000  0.5000000000000000  0.0000000000000000
  0.2500508602643847  0.2500508602643847  0.2500508602643847
  0.7499491397356153  0.7499491397356153  0.2500508602643847
  0.7499491397356153  0.2500508602643847  0.7499491397356153
  0.2500508602643847  0.7499491397356153  0.7499491397356153
 
  0.00000000E+00  0.00000000E+00  0.00000000E+00
  0.00000000E+00  0.00000000E+00  0.00000000E+00
  0.00000000E+00  0.00000000E+00  0.00000000E+00
  0.00000000E+00  0.00000000E+00  0.00000000E+00
  0.00000000E+00  0.00000000E+00  0.00000000E+00
  0.00000000E+00  0.00000000E+00  0.00000000E+00
  0.00000000E+00  0.00000000E+00  0.00000000E+00
  0.00000000E+00  0.00000000E+00  0.00000000E+00
