Al1Hf1   [ORCC,ORCC,oS8] (STD_PRIM doi:1
   1.00000000000000     
     1.6222731347109025   -5.4418790801067294    0.0000000000000000
     1.6222731347109025    5.4418790801067294    0.0000000000000000
     0.0000000000000000    0.0000000000000000    4.3048539392161072
   2   2
Direct
  0.5700517169132127  0.4299482830867873  0.2500000000000000
  0.4299482830867873  0.5700517169132127  0.7500000000000000
  0.8364900913079936  0.1635099086920064  0.2500000000000000
  0.1635099086920064  0.8364900913079936  0.7500000000000000
 
  0.00000000E+00  0.00000000E+00  0.00000000E+00
  0.00000000E+00  0.00000000E+00  0.00000000E+00
  0.00000000E+00  0.00000000E+00  0.00000000E+00
  0.00000000E+00  0.00000000E+00  0.00000000E+00
