Cs2I6Pd1   [FCC,FCC,cF36] (STD_PRIM doi:
   1.22474500000000     
     0.0000000000000000    4.7663644309454174    4.7663644309454174
     4.7663644309454174    0.0000000000000000    4.7663644309454174
     4.7663644309454174    4.7663644309454174    0.0000000000000000
   2   6   1
Direct
  0.7500000000000000  0.7500000000000000  0.7500000000000000
  0.2500000000000000  0.2500000000000000  0.2500000000000000
  0.2336784672227452  0.7663215327772548  0.2336784672227452
  0.7663215327772548  0.2336784672227452  0.7663215327772548
  0.7663215327772548  0.2336784672227452  0.2336784672227452
  0.2336784672227452  0.7663215327772548  0.7663215327772548
  0.7663215327772548  0.7663215327772548  0.2336784672227452
  0.2336784672227452  0.2336784672227452  0.7663215327772548
  0.0000000000000000  0.0000000000000000  0.0000000000000000
 
  0.00000000E+00  0.00000000E+00  0.00000000E+00
  0.00000000E+00  0.00000000E+00  0.00000000E+00
  0.00000000E+00  0.00000000E+00  0.00000000E+00
  0.00000000E+00  0.00000000E+00  0.00000000E+00
  0.00000000E+00  0.00000000E+00  0.00000000E+00
  0.00000000E+00  0.00000000E+00  0.00000000E+00
  0.00000000E+00  0.00000000E+00  0.00000000E+00
  0.00000000E+00  0.00000000E+00  0.00000000E+00
  0.00000000E+00  0.00000000E+00  0.00000000E+00
