Ir1Sc2   [FCC,FCC,cF96] (STD_PRIM doi:10
   1.22474500000000     
     0.0000000000000000    5.0819889551472901    5.0819889551472901
     5.0819889551472901   -0.0000000000000000    5.0819889551472901
     5.0819889551472901    5.0819889551472901    0.0000000000000000
   8  16
Direct
  0.7833372017980400  0.6499883946058801  0.7833372017980400
  0.1499883946058801  0.2833372017980400  0.7833372017980400
  0.7833372017980400  0.2833372017980400  0.1499883946058801
  0.7833372017980400  0.2833372017980400  0.7833372017980400
  0.8500116053941199  0.7166627982019600  0.2166627982019600
  0.2166627982019600  0.3500116053941199  0.2166627982019600
  0.2166627982019600  0.7166627982019600  0.8500116053941199
  0.2166627982019600  0.7166627982019600  0.2166627982019600
  0.0000000000000000 -0.0000000000000000  0.0000000000000000
  0.5000000000000000  0.5000000000000000  0.0000000000000000
 -0.0000000000000000  0.5000000000000000  0.5000000000000000
  0.0000000000000000  0.5000000000000000 -0.0000000000000000
  0.5625286806975984  0.6874713193024016  0.5625286806975984
  0.1874713193024015  0.0625286806975985  0.1874713193024015
  0.5625286806975984  0.6874713193024016  0.1874713193024015
  0.1874713193024015  0.0625286806975985  0.5625286806975984
  0.1874713193024015  0.6874713193024016  0.5625286806975984
  0.5625286806975984  0.0625286806975985  0.1874713193024015
  0.8125286806975984  0.9374713193024016  0.4374713193024016
  0.4374713193024016  0.3125286806975984  0.8125286806975984
  0.8125286806975984  0.9374713193024016  0.8125286806975984
  0.4374713193024016  0.3125286806975984  0.4374713193024016
  0.8125286806975984  0.3125286806975984  0.4374713193024016
  0.4374713193024016  0.9374713193024016  0.8125286806975984
 
  0.00000000E+00  0.00000000E+00  0.00000000E+00
  0.00000000E+00  0.00000000E+00  0.00000000E+00
  0.00000000E+00  0.00000000E+00  0.00000000E+00
  0.00000000E+00  0.00000000E+00  0.00000000E+00
  0.00000000E+00  0.00000000E+00  0.00000000E+00
  0.00000000E+00  0.00000000E+00  0.00000000E+00
  0.00000000E+00  0.00000000E+00  0.00000000E+00
  0.00000000E+00  0.00000000E+00  0.00000000E+00
  0.00000000E+00  0.00000000E+00  0.00000000E+00
  0.00000000E+00  0.00000000E+00  0.00000000E+00
  0.00000000E+00  0.00000000E+00  0.00000000E+00
  0.00000000E+00  0.00000000E+00  0.00000000E+00
  0.00000000E+00  0.00000000E+00  0.00000000E+00
  0.00000000E+00  0.00000000E+00  0.00000000E+00
  0.00000000E+00  0.00000000E+00  0.00000000E+00
  0.00000000E+00  0.00000000E+00  0.00000000E+00
  0.00000000E+00  0.00000000E+00  0.00000000E+00
  0.00000000E+00  0.00000000E+00  0.00000000E+00
  0.00000000E+00  0.00000000E+00  0.00000000E+00
  0.00000000E+00  0.00000000E+00  0.00000000E+00
  0.00000000E+00  0.00000000E+00  0.00000000E+00
  0.00000000E+00  0.00000000E+00  0.00000000E+00
  0.00000000E+00  0.00000000E+00  0.00000000E+00
  0.00000000E+00  0.00000000E+00  0.00000000E+00
