As12Os4Th1   [BCC,BCC,cI34] (STD_PRIM do
   1.00000000000000     
    -4.3204688298951801    4.3204688298951801    4.3204688298951801
     4.3204688298951801   -4.3204688298951801    4.3204688298951801
     4.3204688298951801    4.3204688298951801   -4.3204688298951801
  12   4   1
Direct
  0.1491892678888710  0.6526173210690497  0.8018065889579136
  0.8508107321111289  0.6526173210690497  0.5034280531801786
  0.1491892678888710  0.3473826789309503  0.4965719468198213
  0.8508107321111289  0.3473826789309503  0.1981934110420864
  0.3473826789309503  0.1981934110420864  0.8508107321111289
  0.3473826789309503  0.4965719468198213  0.1491892678888710
  0.6526173210690497  0.5034280531801786  0.8508107321111289
  0.6526173210690497  0.8018065889579136  0.1491892678888710
  0.4965719468198213  0.1491892678888710  0.3473826789309503
  0.1981934110420864  0.8508107321111289  0.3473826789309503
  0.8018065889579136  0.1491892678888710  0.6526173210690497
  0.5034280531801786  0.8508107321111289  0.6526173210690497
  0.5000000000000000  0.0000000000000000 -0.0000000000000000
  0.5000000000000000  0.5000000000000000  0.5000000000000000
  0.0000000000000000  0.0000000000000000  0.5000000000000000
 -0.0000000000000000  0.5000000000000000  0.0000000000000000
 -0.0000000000000000  0.0000000000000000 -0.0000000000000000
 
  0.00000000E+00  0.00000000E+00  0.00000000E+00
  0.00000000E+00  0.00000000E+00  0.00000000E+00
  0.00000000E+00  0.00000000E+00  0.00000000E+00
  0.00000000E+00  0.00000000E+00  0.00000000E+00
  0.00000000E+00  0.00000000E+00  0.00000000E+00
  0.00000000E+00  0.00000000E+00  0.00000000E+00
  0.00000000E+00  0.00000000E+00  0.00000000E+00
  0.00000000E+00  0.00000000E+00  0.00000000E+00
  0.00000000E+00  0.00000000E+00  0.00000000E+00
  0.00000000E+00  0.00000000E+00  0.00000000E+00
  0.00000000E+00  0.00000000E+00  0.00000000E+00
  0.00000000E+00  0.00000000E+00  0.00000000E+00
  0.00000000E+00  0.00000000E+00  0.00000000E+00
  0.00000000E+00  0.00000000E+00  0.00000000E+00
  0.00000000E+00  0.00000000E+00  0.00000000E+00
  0.00000000E+00  0.00000000E+00  0.00000000E+00
  0.00000000E+00  0.00000000E+00  0.00000000E+00
