Al1Ta2   [TET,TET,tP30] (STD_PRIM doi:10
   1.00000000000000     
     9.9847715652125011    0.0000000000000000    0.0000000000000000
     0.0000000000000000    9.9847715652125011    0.0000000000000000
     0.0000000000000000    0.0000000000000000    5.4586686607247490
  10  20
Direct
  0.0000000000000000  0.0000000000000000  0.0000000000000000
  0.5000000000000000  0.5000000000000000  0.5000000000000000
  0.4652074371691547  0.1354390749622655  0.0000000000000000
  0.5347925628308454  0.8645609250377345 -0.0000000000000000
  0.3645609250377345  0.9652074371691546  0.5000000000000000
  0.6354390749622655  0.0347925628308453  0.5000000000000000
  0.0347925628308453  0.6354390749622655  0.5000000000000000
  0.9652074371691546  0.3645609250377345  0.5000000000000000
  0.1354390749622655  0.4652074371691547 -0.0000000000000000
  0.8645609250377345  0.5347925628308454  0.0000000000000000
  0.4020580830821211  0.4020580830821211 -0.0000000000000000
  0.5979419169178789  0.5979419169178789  0.0000000000000000
  0.0979419169178789  0.9020580830821211  0.5000000000000000
  0.9020580830821211  0.0979419169178789  0.5000000000000000
  0.2631210685143578  0.9377188226284792 -0.0000000000000000
  0.7368789314856421  0.0622811773715208  0.0000000000000000
  0.5622811773715208  0.7631210685143579  0.5000000000000000
  0.4377188226284792  0.2368789314856421  0.5000000000000000
  0.2368789314856421  0.4377188226284792  0.5000000000000000
  0.7631210685143579  0.5622811773715208  0.5000000000000000
  0.9377188226284792  0.2631210685143578 -0.0000000000000000
  0.0622811773715208  0.7368789314856421  0.0000000000000000
  0.1881814350173899  0.1881814350173899  0.2485185724280545
  0.8118185649826172  0.8118185649826172  0.2485185724280545
  0.3118185649826101  0.6881814350173828  0.7485185724280545
  0.6881814350173828  0.3118185649826101  0.7485185724280545
  0.3118185649826101  0.6881814350173828  0.2514814275719455
  0.6881814350173828  0.3118185649826101  0.2514814275719455
  0.1881814350173899  0.1881814350173899  0.7514814275719455
  0.8118185649826172  0.8118185649826172  0.7514814275719455
 
  0.00000000E+00  0.00000000E+00  0.00000000E+00
  0.00000000E+00  0.00000000E+00  0.00000000E+00
  0.00000000E+00  0.00000000E+00  0.00000000E+00
  0.00000000E+00  0.00000000E+00  0.00000000E+00
  0.00000000E+00  0.00000000E+00  0.00000000E+00
  0.00000000E+00  0.00000000E+00  0.00000000E+00
  0.00000000E+00  0.00000000E+00  0.00000000E+00
  0.00000000E+00  0.00000000E+00  0.00000000E+00
  0.00000000E+00  0.00000000E+00  0.00000000E+00
  0.00000000E+00  0.00000000E+00  0.00000000E+00
  0.00000000E+00  0.00000000E+00  0.00000000E+00
  0.00000000E+00  0.00000000E+00  0.00000000E+00
  0.00000000E+00  0.00000000E+00  0.00000000E+00
  0.00000000E+00  0.00000000E+00  0.00000000E+00
  0.00000000E+00  0.00000000E+00  0.00000000E+00
  0.00000000E+00  0.00000000E+00  0.00000000E+00
  0.00000000E+00  0.00000000E+00  0.00000000E+00
  0.00000000E+00  0.00000000E+00  0.00000000E+00
  0.00000000E+00  0.00000000E+00  0.00000000E+00
  0.00000000E+00  0.00000000E+00  0.00000000E+00
  0.00000000E+00  0.00000000E+00  0.00000000E+00
  0.00000000E+00  0.00000000E+00  0.00000000E+00
  0.00000000E+00  0.00000000E+00  0.00000000E+00
  0.00000000E+00  0.00000000E+00  0.00000000E+00
  0.00000000E+00  0.00000000E+00  0.00000000E+00
  0.00000000E+00  0.00000000E+00  0.00000000E+00
  0.00000000E+00  0.00000000E+00  0.00000000E+00
  0.00000000E+00  0.00000000E+00  0.00000000E+00
  0.00000000E+00  0.00000000E+00  0.00000000E+00
  0.00000000E+00  0.00000000E+00  0.00000000E+00
