La1Pt1   [ORCC,ORCC,oS8] (STD_PRIM doi:1
   1.00000000000000     
     2.0044458833421528   -5.5845832757315410    0.0000000000000000
     2.0044458833421528    5.5845832757315410   -0.0000000000000000
     0.0000000000000000    0.0000000000000000    4.6193096186046629
   2   2
Direct
  0.1354121466695309  0.8645878533304692  0.7500000000000000
  0.8645878533304692  0.1354121466695309  0.2500000000000000
  0.4094423877291432  0.5905576122708569  0.7500000000000000
  0.5905576122708569  0.4094423877291432  0.2500000000000000
 
  0.00000000E+00  0.00000000E+00  0.00000000E+00
  0.00000000E+00  0.00000000E+00  0.00000000E+00
  0.00000000E+00  0.00000000E+00  0.00000000E+00
  0.00000000E+00  0.00000000E+00  0.00000000E+00
