Ga3Zr1   [BCT,BCT2,tI8] (STD_PRIM doi:10
   1.00000000000000     
    -1.9546733270261654    1.9546733270261654    4.5543839952116665
     1.9546733270261654   -1.9546733270261654    4.5543839952116665
     1.9546733270261654    1.9546733270261654   -4.5543839952116665
   3   1
Direct
  0.5000000000000000  0.5000000000000000 -0.0000000000000000
  0.7500000000000000  0.2500000000000000  0.5000000000000000
  0.2500000000000000  0.7500000000000000  0.5000000000000000
 -0.0000000000000000 -0.0000000000000000  0.0000000000000000
 
  0.00000000E+00  0.00000000E+00  0.00000000E+00
  0.00000000E+00  0.00000000E+00  0.00000000E+00
  0.00000000E+00  0.00000000E+00  0.00000000E+00
  0.00000000E+00  0.00000000E+00  0.00000000E+00
