C2Er2Re1   [ORC,ORC,oP20] (STD_PRIM doi:
   1.00000000000000     
     5.0639962873309026    0.0000000000000000    0.0000000000000000
     0.0000000000000000    6.5468161458132057    0.0000000000000000
     0.0000000000000000    0.0000000000000000    9.7861290605879088
   8   8   4
Direct
  0.2500000000000000  0.0487994642378249  0.7409751500004679
  0.7500000000000000  0.4512005357621751  0.2409751500004678
  0.7500000000000000  0.9512005357621750  0.2590248499995322
  0.2500000000000000  0.5487994642378250  0.7590248499995321
  0.2500000000000000  0.6749121307271182  0.4473234469896659
  0.7500000000000000  0.8250878692728818  0.9473234469896660
  0.7500000000000000  0.3250878692728819  0.5526765530103340
  0.2500000000000000  0.1749121307271181  0.0526765530103341
  0.2500000000000000  0.8215107044151385  0.9427977021303210
  0.7500000000000000  0.6784892955848615  0.4427977021303210
  0.7500000000000000  0.1784892955848614  0.0572022978696790
  0.2500000000000000  0.3215107044151386  0.5572022978696790
  0.2500000000000000  0.4661339620584914  0.2166251778413180
  0.7500000000000000  0.0338660379415085  0.7166251778413181
  0.7500000000000000  0.5338660379415084  0.7833748221586819
  0.2500000000000000  0.9661339620584916  0.2833748221586820
  0.2500000000000000  0.2814053913931353  0.8683498544440013
  0.7500000000000000  0.2185946086068647  0.3683498544440014
  0.7500000000000000  0.7185946086068649  0.1316501455559986
  0.2500000000000000  0.7814053913931351  0.6316501455559987
 
  0.00000000E+00  0.00000000E+00  0.00000000E+00
  0.00000000E+00  0.00000000E+00  0.00000000E+00
  0.00000000E+00  0.00000000E+00  0.00000000E+00
  0.00000000E+00  0.00000000E+00  0.00000000E+00
  0.00000000E+00  0.00000000E+00  0.00000000E+00
  0.00000000E+00  0.00000000E+00  0.00000000E+00
  0.00000000E+00  0.00000000E+00  0.00000000E+00
  0.00000000E+00  0.00000000E+00  0.00000000E+00
  0.00000000E+00  0.00000000E+00  0.00000000E+00
  0.00000000E+00  0.00000000E+00  0.00000000E+00
  0.00000000E+00  0.00000000E+00  0.00000000E+00
  0.00000000E+00  0.00000000E+00  0.00000000E+00
  0.00000000E+00  0.00000000E+00  0.00000000E+00
  0.00000000E+00  0.00000000E+00  0.00000000E+00
  0.00000000E+00  0.00000000E+00  0.00000000E+00
  0.00000000E+00  0.00000000E+00  0.00000000E+00
  0.00000000E+00  0.00000000E+00  0.00000000E+00
  0.00000000E+00  0.00000000E+00  0.00000000E+00
  0.00000000E+00  0.00000000E+00  0.00000000E+00
  0.00000000E+00  0.00000000E+00  0.00000000E+00
