O2Pa1   [CUB,CUB,cP12] (STD_PRIM doi:10.
   1.00000000000000     
     5.4579864436557859    0.0000000000000000    0.0000000000000000
    -0.0000000000000000    5.4579864436557868    0.0000000000000000
    -0.0000000000000000   -0.0000000000000000    5.4579864436557850
   8   4
Direct
  0.2509532958191457  0.2509532958191457  0.2509532958191457
  0.2490467041808544  0.7490467041808544  0.7509532958191456
  0.7490467041808544  0.7509532958191456  0.2490467041808544
  0.7509532958191456  0.2490467041808544  0.7490467041808544
  0.7490467041808544  0.7490467041808544  0.7490467041808544
  0.7509532958191456  0.2509532958191457  0.2490467041808544
  0.2509532958191457  0.2490467041808544  0.7509532958191456
  0.2490467041808544  0.7509532958191456  0.2509532958191457
  0.0000000000000000  0.0000000000000000  0.0000000000000000
  0.5000000000000000  0.0000000000000000  0.5000000000000000
  0.0000000000000000  0.5000000000000000  0.5000000000000000
  0.5000000000000000  0.5000000000000000  0.0000000000000000
 
  0.00000000E+00  0.00000000E+00  0.00000000E+00
  0.00000000E+00  0.00000000E+00  0.00000000E+00
  0.00000000E+00  0.00000000E+00  0.00000000E+00
  0.00000000E+00  0.00000000E+00  0.00000000E+00
  0.00000000E+00  0.00000000E+00  0.00000000E+00
  0.00000000E+00  0.00000000E+00  0.00000000E+00
  0.00000000E+00  0.00000000E+00  0.00000000E+00
  0.00000000E+00  0.00000000E+00  0.00000000E+00
  0.00000000E+00  0.00000000E+00  0.00000000E+00
  0.00000000E+00  0.00000000E+00  0.00000000E+00
  0.00000000E+00  0.00000000E+00  0.00000000E+00
  0.00000000E+00  0.00000000E+00  0.00000000E+00
