Na8Sb4Sn1   [FCC,FCC,cF104] (STD_PRIM do
   1.22474500000000     
    -0.0000000000000000    6.0682815672152088    6.0682815672152088
     6.0682815672152088    0.0000000000000000    6.0682815672152088
     6.0682815672152088    6.0682815672152088    0.0000000000000000
  16   8   2
Direct
  0.1250000000000000  0.6250000000000000  0.1250000000000000
  0.6250000000000000  0.1250000000000000  0.1250000000000000
  0.1250000000000000  0.1250000000000000  0.1250000000000000
  0.1250000000000000  0.1250000000000000  0.6250000000000000
  0.2714564921554953  0.7285435078445047  0.7285435078445047
  0.7285435078445047  0.2714564921554953  0.2714564921554953
  0.2714564921554953  0.7285435078445047  0.2714564921554953
  0.7285435078445047  0.2714564921554953  0.7285435078445047
  0.7285435078445047  0.7285435078445047  0.2714564921554953
  0.2714564921554953  0.2714564921554953  0.7285435078445047
  0.5214564921554953  0.9785435078445047  0.5214564921554953
  0.9785435078445047  0.5214564921554953  0.9785435078445047
  0.5214564921554953  0.9785435078445047  0.9785435078445047
  0.9785435078445047  0.5214564921554953  0.5214564921554953
  0.5214564921554953  0.5214564921554953  0.9785435078445047
  0.9785435078445047  0.9785435078445047  0.5214564921554953
  0.3625581609131287  0.9123255172606070  0.3625581609131287
  0.9123255172606070  0.3625581609131287  0.3625581609131287
  0.3625581609131287  0.3625581609131287  0.3625581609131287
  0.3625581609131287  0.3625581609131287  0.9123255172606070
  0.3376744827393931  0.8874418390868714  0.8874418390868714
  0.8874418390868714  0.3376744827393931  0.8874418390868714
  0.8874418390868714  0.8874418390868714  0.8874418390868714
  0.8874418390868714  0.8874418390868714  0.3376744827393931
 -0.0000000000000000  0.0000000000000000 -0.0000000000000000
  0.2500000000000000  0.2500000000000000  0.2500000000000000
 
  0.00000000E+00  0.00000000E+00  0.00000000E+00
  0.00000000E+00  0.00000000E+00  0.00000000E+00
  0.00000000E+00  0.00000000E+00  0.00000000E+00
  0.00000000E+00  0.00000000E+00  0.00000000E+00
  0.00000000E+00  0.00000000E+00  0.00000000E+00
  0.00000000E+00  0.00000000E+00  0.00000000E+00
  0.00000000E+00  0.00000000E+00  0.00000000E+00
  0.00000000E+00  0.00000000E+00  0.00000000E+00
  0.00000000E+00  0.00000000E+00  0.00000000E+00
  0.00000000E+00  0.00000000E+00  0.00000000E+00
  0.00000000E+00  0.00000000E+00  0.00000000E+00
  0.00000000E+00  0.00000000E+00  0.00000000E+00
  0.00000000E+00  0.00000000E+00  0.00000000E+00
  0.00000000E+00  0.00000000E+00  0.00000000E+00
  0.00000000E+00  0.00000000E+00  0.00000000E+00
  0.00000000E+00  0.00000000E+00  0.00000000E+00
  0.00000000E+00  0.00000000E+00  0.00000000E+00
  0.00000000E+00  0.00000000E+00  0.00000000E+00
  0.00000000E+00  0.00000000E+00  0.00000000E+00
  0.00000000E+00  0.00000000E+00  0.00000000E+00
  0.00000000E+00  0.00000000E+00  0.00000000E+00
  0.00000000E+00  0.00000000E+00  0.00000000E+00
  0.00000000E+00  0.00000000E+00  0.00000000E+00
  0.00000000E+00  0.00000000E+00  0.00000000E+00
  0.00000000E+00  0.00000000E+00  0.00000000E+00
  0.00000000E+00  0.00000000E+00  0.00000000E+00
