Br4K2Pt1   [TET,TET,tP7] (STD_PRIM doi:1
   1.00000000000000     
     7.4800908766558694    0.0000000000000000   -0.0000000000000000
     0.0000000000000000    7.4800908766558694    0.0000000000000000
    -0.0000000000000000    0.0000000000000000    4.4592070136967772
   4   2   1
Direct
  0.2339206060905350  0.2339206060905350 -0.0000000000000000
  0.7660793939094650  0.7660793939094650  0.0000000000000000
  0.7660793939094650  0.2339206060905350  0.0000000000000000
  0.2339206060905350  0.7660793939094650 -0.0000000000000000
  0.5000000000000000  0.0000000000000000  0.5000000000000000
  0.0000000000000000  0.5000000000000000  0.5000000000000000
  0.0000000000000000  0.0000000000000000  0.0000000000000000
 
  0.00000000E+00  0.00000000E+00  0.00000000E+00
  0.00000000E+00  0.00000000E+00  0.00000000E+00
  0.00000000E+00  0.00000000E+00  0.00000000E+00
  0.00000000E+00  0.00000000E+00  0.00000000E+00
  0.00000000E+00  0.00000000E+00  0.00000000E+00
  0.00000000E+00  0.00000000E+00  0.00000000E+00
  0.00000000E+00  0.00000000E+00  0.00000000E+00
