P12Ru4Tb1   [BCC,BCC,cI34] (STD_PRIM doi
   1.00000000000000     
    -4.0381304382174168    4.0381304382174168    4.0381304382174168
     4.0381304382174168   -4.0381304382174168    4.0381304382174168
     4.0381304382174168    4.0381304382174168   -4.0381304382174168
  12   4   1
Direct
  0.1423911807862647  0.3574764957046761  0.4998676764909408
  0.1423911807862647  0.6425235042953239  0.7849146850815886
  0.8576088192137353  0.3574764957046761  0.2150853149184115
  0.8576088192137353  0.6425235042953239  0.5001323235090592
  0.4998676764909408  0.1423911807862647  0.3574764957046761
  0.7849146850815886  0.1423911807862647  0.6425235042953239
  0.2150853149184115  0.8576088192137353  0.3574764957046761
  0.5001323235090592  0.8576088192137353  0.6425235042953239
  0.3574764957046761  0.4998676764909408  0.1423911807862647
  0.6425235042953239  0.7849146850815886  0.1423911807862647
  0.3574764957046761  0.2150853149184115  0.8576088192137353
  0.6425235042953239  0.5001323235090592  0.8576088192137353
  0.5000000000000000  0.5000000000000000  0.5000000000000000
  0.0000000000000000  0.5000000000000000  0.0000000000000000
  0.5000000000000000  0.0000000000000000  0.0000000000000000
 -0.0000000000000000 -0.0000000000000000  0.5000000000000000
 -0.0000000000000000 -0.0000000000000000 -0.0000000000000000
 
  0.00000000E+00  0.00000000E+00  0.00000000E+00
  0.00000000E+00  0.00000000E+00  0.00000000E+00
  0.00000000E+00  0.00000000E+00  0.00000000E+00
  0.00000000E+00  0.00000000E+00  0.00000000E+00
  0.00000000E+00  0.00000000E+00  0.00000000E+00
  0.00000000E+00  0.00000000E+00  0.00000000E+00
  0.00000000E+00  0.00000000E+00  0.00000000E+00
  0.00000000E+00  0.00000000E+00  0.00000000E+00
  0.00000000E+00  0.00000000E+00  0.00000000E+00
  0.00000000E+00  0.00000000E+00  0.00000000E+00
  0.00000000E+00  0.00000000E+00  0.00000000E+00
  0.00000000E+00  0.00000000E+00  0.00000000E+00
  0.00000000E+00  0.00000000E+00  0.00000000E+00
  0.00000000E+00  0.00000000E+00  0.00000000E+00
  0.00000000E+00  0.00000000E+00  0.00000000E+00
  0.00000000E+00  0.00000000E+00  0.00000000E+00
  0.00000000E+00  0.00000000E+00  0.00000000E+00
