Ca1O3Si1   [ORC,ORC,oP20] (STD_PRIM doi:
   1.00000000000000     
     5.1033926965168446   -0.0000382869485112    0.0000000000000000
    -0.0000388893925407    5.1222910857639352    0.0000000000000000
     0.0000000000000000    0.0000000000000000    7.1912576026718984
   4  12   4
Direct
  0.4975690121757194  0.0012266359541989  0.2500000000000000
  0.0024320311740249  0.5012253897446471  0.7500000000000000
  0.5024309878242805  0.9987733640458012  0.7500000000000000
  0.9975679688259751  0.4987746102553529  0.2500000000000000
  0.7463485584908509  0.2463185992039403  0.0196946242531399
  0.7536513619765680  0.7463185339317210  0.9802858596105570
  0.2536514415091492  0.7536814007960597  0.5196946242531399
  0.2463486380234319  0.2536814660682790  0.4802858596105571
  0.2536514415091492  0.7536814007960597  0.9803053757468601
  0.2463486380234319  0.2536814660682790  0.0197141403894429
  0.7463485584908509  0.2463185992039403  0.4803053757468601
  0.7536513619765680  0.7463185339317210  0.5197141403894430
  0.0004552641720088  0.9615931967184287  0.2500000000000000
  0.4995000886255856  0.4615932608706447  0.7500000000000000
  0.9995447358279913  0.0384068032815713  0.7500000000000000
  0.5004999113744144  0.5384067391293553  0.2500000000000000
  0.0000000000000000  0.0000000000000000  0.0000000000000000
  0.5000000000000000  0.5000000000000000  0.0000000000000000
 -0.0000000000000000 -0.0000000000000000  0.5000000000000000
  0.5000000000000000  0.5000000000000000  0.5000000000000000
 
  0.00000000E+00  0.00000000E+00  0.00000000E+00
  0.00000000E+00  0.00000000E+00  0.00000000E+00
  0.00000000E+00  0.00000000E+00  0.00000000E+00
  0.00000000E+00  0.00000000E+00  0.00000000E+00
  0.00000000E+00  0.00000000E+00  0.00000000E+00
  0.00000000E+00  0.00000000E+00  0.00000000E+00
  0.00000000E+00  0.00000000E+00  0.00000000E+00
  0.00000000E+00  0.00000000E+00  0.00000000E+00
  0.00000000E+00  0.00000000E+00  0.00000000E+00
  0.00000000E+00  0.00000000E+00  0.00000000E+00
  0.00000000E+00  0.00000000E+00  0.00000000E+00
  0.00000000E+00  0.00000000E+00  0.00000000E+00
  0.00000000E+00  0.00000000E+00  0.00000000E+00
  0.00000000E+00  0.00000000E+00  0.00000000E+00
  0.00000000E+00  0.00000000E+00  0.00000000E+00
  0.00000000E+00  0.00000000E+00  0.00000000E+00
  0.00000000E+00  0.00000000E+00  0.00000000E+00
  0.00000000E+00  0.00000000E+00  0.00000000E+00
  0.00000000E+00  0.00000000E+00  0.00000000E+00
  0.00000000E+00  0.00000000E+00  0.00000000E+00
