Ir1Li1   [HEX,HEX,hP2] (STD_PRIM doi:10.
   1.00000000000000     
     1.3294104227492318   -2.3026063963132914    0.0000000000000000
     1.3293969354557154    2.3025986094207491    0.0000000000000000
     0.0000000000000000    0.0000000000000000    4.3621445734490578
   1   1
Direct
  0.0000015092555194  0.0000030185110387  0.0000000000000000
  0.6666984907444794  0.3333969814889587  0.5000000000000000
 
  0.00000000E+00  0.00000000E+00  0.00000000E+00
  0.00000000E+00  0.00000000E+00  0.00000000E+00
