Ca1Cd1Sn1   [HEX,HEX,hP9] (STD_PRIM doi:
   1.00000000000000     
     3.8759731150702166   -6.7133823640726265    0.0000000000000000
     3.8758818544671247    6.7133296747388655    0.0000000000000000
     0.0000000000000000    0.0000000000000000    4.7163132316187966
   3   3   3
Direct
  0.9999995129462822  0.4230375382729286  0.5000000000000000
  0.5769619746733538  0.5769624617270714  0.5000000000000000
  0.4230352214909054  0.0000000000000000  0.5000000000000000
  0.0000085021797900  0.7471006378807823  0.0000000000000000
  0.2529078642990077  0.2528993621192178  0.0000000000000000
  0.7470889950713093 -0.0000000000000000  0.0000000000000000
  0.9999965094126624  0.0000000000000000  0.5000000000000000
  0.6666710985315754  0.3333407771364614  0.0000000000000000
  0.3333303213951069  0.6666592228635386  0.0000000000000000
 
  0.00000000E+00  0.00000000E+00  0.00000000E+00
  0.00000000E+00  0.00000000E+00  0.00000000E+00
  0.00000000E+00  0.00000000E+00  0.00000000E+00
  0.00000000E+00  0.00000000E+00  0.00000000E+00
  0.00000000E+00  0.00000000E+00  0.00000000E+00
  0.00000000E+00  0.00000000E+00  0.00000000E+00
  0.00000000E+00  0.00000000E+00  0.00000000E+00
  0.00000000E+00  0.00000000E+00  0.00000000E+00
  0.00000000E+00  0.00000000E+00  0.00000000E+00
