Na3Sb1Se3   [CUB,CUB,cP28] (STD_PRIM doi
   1.00000000000000     
     9.0531927175476525   -0.0000000000000000   -0.0000000000000000
     0.0000000000000000    9.0531927175476525   -0.0000000000000000
    -0.0000000000000000    0.0000000000000000    9.0531927175476525
  12   4  12
Direct
  0.5817570931053522  0.5817570931053522  0.5817570931053522
  0.9182429068946478  0.4182429068946476  0.0817570931053524
  0.4182429068946476  0.0817570931053524  0.9182429068946478
  0.0817570931053524  0.9182429068946478  0.4182429068946476
  0.3218979908621663  0.3218979908621663  0.3218979908621663
  0.1781020091378337  0.6781020091378337  0.8218979908621663
  0.6781020091378337  0.8218979908621663  0.1781020091378337
  0.8218979908621663  0.1781020091378337  0.6781020091378337
  0.8127817400642132  0.8127817400642132  0.8127817400642132
  0.6872182599357868  0.1872182599357937  0.3127817400642062
  0.1872182599357937  0.3127817400642062  0.6872182599357868
  0.3127817400642062  0.6872182599357868  0.1872182599357937
  0.0370928474333457  0.0370928474333457  0.0370928474333457
  0.4629071525666543  0.9629071525666543  0.5370928474333457
  0.9629071525666543  0.5370928474333457  0.4629071525666543
  0.5370928474333457  0.4629071525666543  0.9629071525666543
  0.2380077856469374  0.6143168451420326  0.5011488425182802
  0.2619922143530626  0.3856831548579674  0.0011488425182802
  0.7619922143530626  0.1143168451420326  0.9988511574817198
  0.7380077856469374  0.8856831548579674  0.4988511574817198
  0.5011488425182802  0.2380077856469374  0.6143168451420326
  0.0011488425182802  0.2619922143530626  0.3856831548579674
  0.9988511574817198  0.7619922143530626  0.1143168451420326
  0.4988511574817198  0.7380077856469374  0.8856831548579674
  0.6143168451420326  0.5011488425182802  0.2380077856469374
  0.3856831548579674  0.0011488425182802  0.2619922143530626
  0.1143168451420326  0.9988511574817198  0.7619922143530626
  0.8856831548579674  0.4988511574817198  0.7380077856469374
 
  0.00000000E+00  0.00000000E+00  0.00000000E+00
  0.00000000E+00  0.00000000E+00  0.00000000E+00
  0.00000000E+00  0.00000000E+00  0.00000000E+00
  0.00000000E+00  0.00000000E+00  0.00000000E+00
  0.00000000E+00  0.00000000E+00  0.00000000E+00
  0.00000000E+00  0.00000000E+00  0.00000000E+00
  0.00000000E+00  0.00000000E+00  0.00000000E+00
  0.00000000E+00  0.00000000E+00  0.00000000E+00
  0.00000000E+00  0.00000000E+00  0.00000000E+00
  0.00000000E+00  0.00000000E+00  0.00000000E+00
  0.00000000E+00  0.00000000E+00  0.00000000E+00
  0.00000000E+00  0.00000000E+00  0.00000000E+00
  0.00000000E+00  0.00000000E+00  0.00000000E+00
  0.00000000E+00  0.00000000E+00  0.00000000E+00
  0.00000000E+00  0.00000000E+00  0.00000000E+00
  0.00000000E+00  0.00000000E+00  0.00000000E+00
  0.00000000E+00  0.00000000E+00  0.00000000E+00
  0.00000000E+00  0.00000000E+00  0.00000000E+00
  0.00000000E+00  0.00000000E+00  0.00000000E+00
  0.00000000E+00  0.00000000E+00  0.00000000E+00
  0.00000000E+00  0.00000000E+00  0.00000000E+00
  0.00000000E+00  0.00000000E+00  0.00000000E+00
  0.00000000E+00  0.00000000E+00  0.00000000E+00
  0.00000000E+00  0.00000000E+00  0.00000000E+00
  0.00000000E+00  0.00000000E+00  0.00000000E+00
  0.00000000E+00  0.00000000E+00  0.00000000E+00
  0.00000000E+00  0.00000000E+00  0.00000000E+00
  0.00000000E+00  0.00000000E+00  0.00000000E+00
