In2S6Zn3   [HEX,HEX,hP11] (STD_PRIM doi:
   1.00000000000000     
     1.9384974548635143   -3.3576103120225702    0.0000026304403896
     1.9385360000759786    3.3576326159877312   -0.0000242594117814
    -0.0001441249396427   -0.0000973945057164   18.3356580634320814
   2   6   3
Direct
  0.6666350215163088  0.3332700500748024  0.0406885857865674
  0.3333232291271715  0.6666463818519303  0.4272122378666451
  0.9999628640721596  0.9999252216886878  0.9832802930096050
  0.0000110885828605  0.0000220943346299  0.3468260078373387
  0.0000399967036306  0.0000752613641931  0.6631395326707494
  0.6667010448652665  0.3334054661638933  0.1789689292859544
  0.6666500979940586  0.3332994979204114  0.4989668309513976
  0.6667064842315977  0.3334169129313760  0.8323471490877420
  0.0000339321602540  0.0000648200140979  0.2247929490864725
  0.0000362936706125  0.0000684511293305  0.7962409859079611
  0.6666999470760747  0.3334058425266518  0.6319364985095540
 
  0.00000000E+00  0.00000000E+00  0.00000000E+00
  0.00000000E+00  0.00000000E+00  0.00000000E+00
  0.00000000E+00  0.00000000E+00  0.00000000E+00
  0.00000000E+00  0.00000000E+00  0.00000000E+00
  0.00000000E+00  0.00000000E+00  0.00000000E+00
  0.00000000E+00  0.00000000E+00  0.00000000E+00
  0.00000000E+00  0.00000000E+00  0.00000000E+00
  0.00000000E+00  0.00000000E+00  0.00000000E+00
  0.00000000E+00  0.00000000E+00  0.00000000E+00
  0.00000000E+00  0.00000000E+00  0.00000000E+00
  0.00000000E+00  0.00000000E+00  0.00000000E+00
