Co2N1Zr4   [FCC,FCC,cF112] (STD_PRIM doi
   1.22474500000000     
    -0.0000000000000000    4.9723778313930271    4.9723778313930271
     4.9723778313930271    0.0000000000000000    4.9723778313930271
     4.9723778313930271    4.9723778313930271   -0.0000000000000000
   8   4  16
Direct
  0.2184464181487216  0.2184464181487216  0.2184464181487216
  0.2184464181487216  0.8446607455538282  0.2184464181487216
  0.8446607455538282  0.2184464181487216  0.2184464181487216
  0.2184464181487216  0.2184464181487216  0.8446607455538282
  0.7815535818512784  0.1553392544461718  0.7815535818512784
  0.7815535818512784  0.7815535818512784  0.7815535818512784
  0.1553392544461718  0.7815535818512784  0.7815535818512784
  0.7815535818512784  0.7815535818512784  0.1553392544461718
  0.5000000000000000  0.5000000000000000  0.5000000000000000
  0.5000000000000000 -0.0000000000000000  0.5000000000000000
 -0.0000000000000000  0.5000000000000000  0.5000000000000000
  0.5000000000000000  0.5000000000000000  0.0000000000000000
  0.0000000000000000  0.0000000000000000  0.0000000000000000
  0.0000000000000000  0.5000000000000000 -0.0000000000000000
  0.5000000000000000 -0.0000000000000000  0.0000000000000000
 -0.0000000000000000 -0.0000000000000000  0.5000000000000000
  0.4413271447641907  0.4413271447641907  0.8086728552358093
  0.8086728552358093  0.8086728552358093  0.4413271447641907
  0.8086728552358093  0.4413271447641907  0.4413271447641907
  0.4413271447641907  0.8086728552358093  0.8086728552358093
  0.4413271447641907  0.8086728552358093  0.4413271447641907
  0.8086728552358093  0.4413271447641907  0.8086728552358093
  0.5586728552358093  0.1913271447641907  0.1913271447641907
  0.1913271447641907  0.5586728552358093  0.5586728552358093
  0.1913271447641907  0.1913271447641907  0.5586728552358093
  0.5586728552358093  0.5586728552358093  0.1913271447641907
  0.5586728552358093  0.1913271447641907  0.5586728552358093
  0.1913271447641907  0.5586728552358093  0.1913271447641907
 
  0.00000000E+00  0.00000000E+00  0.00000000E+00
  0.00000000E+00  0.00000000E+00  0.00000000E+00
  0.00000000E+00  0.00000000E+00  0.00000000E+00
  0.00000000E+00  0.00000000E+00  0.00000000E+00
  0.00000000E+00  0.00000000E+00  0.00000000E+00
  0.00000000E+00  0.00000000E+00  0.00000000E+00
  0.00000000E+00  0.00000000E+00  0.00000000E+00
  0.00000000E+00  0.00000000E+00  0.00000000E+00
  0.00000000E+00  0.00000000E+00  0.00000000E+00
  0.00000000E+00  0.00000000E+00  0.00000000E+00
  0.00000000E+00  0.00000000E+00  0.00000000E+00
  0.00000000E+00  0.00000000E+00  0.00000000E+00
  0.00000000E+00  0.00000000E+00  0.00000000E+00
  0.00000000E+00  0.00000000E+00  0.00000000E+00
  0.00000000E+00  0.00000000E+00  0.00000000E+00
  0.00000000E+00  0.00000000E+00  0.00000000E+00
  0.00000000E+00  0.00000000E+00  0.00000000E+00
  0.00000000E+00  0.00000000E+00  0.00000000E+00
  0.00000000E+00  0.00000000E+00  0.00000000E+00
  0.00000000E+00  0.00000000E+00  0.00000000E+00
  0.00000000E+00  0.00000000E+00  0.00000000E+00
  0.00000000E+00  0.00000000E+00  0.00000000E+00
  0.00000000E+00  0.00000000E+00  0.00000000E+00
  0.00000000E+00  0.00000000E+00  0.00000000E+00
  0.00000000E+00  0.00000000E+00  0.00000000E+00
  0.00000000E+00  0.00000000E+00  0.00000000E+00
  0.00000000E+00  0.00000000E+00  0.00000000E+00
  0.00000000E+00  0.00000000E+00  0.00000000E+00
