B1C5   [ORCI,ORCI,oI12] (STD_PRIM doi:10
   1.00000000000000     
    -1.2520351823127640    1.8673236121761396    3.8609497970716977
     1.2520351823127640   -1.8673236121761396    3.8609497970716977
     1.2520351823127640    1.8673236121761396   -3.8609497970716977
   1   5
Direct
  0.5244536787794069  0.5000000000000000  0.0244536787794068
  0.1111515354858044  0.3276295870407259  0.7835219484450786
  0.4558923614043598  0.6723704129592741  0.7835219484450786
  0.8733764388645526  0.8315142639751074  0.0418621748894381
  0.2103479109143377  0.1684857360248926  0.0418621748894381
  0.8248780745515492 -0.0000000000000000  0.8248780745515492
 
  0.00000000E+00  0.00000000E+00  0.00000000E+00
  0.00000000E+00  0.00000000E+00  0.00000000E+00
  0.00000000E+00  0.00000000E+00  0.00000000E+00
  0.00000000E+00  0.00000000E+00  0.00000000E+00
  0.00000000E+00  0.00000000E+00  0.00000000E+00
  0.00000000E+00  0.00000000E+00  0.00000000E+00
