As2Mg3   [BCC,BCC,cI80] (STD_PRIM doi:10
   1.00000000000000     
    -6.2313812600799716    6.2313812600799716    6.2313812600799716
     6.2313812600799716   -6.2313812600799716    6.2313812600799716
     6.2313812600799716    6.2313812600799716   -6.2313812600799716
  16  24
Direct
 -0.0000000000000000  0.5000000000000000 -0.0000000000000000
  0.5000000000000000 -0.0000000000000000  0.0000000000000000
  0.5000000000000000  0.5000000000000000  0.5000000000000000
  0.0000000000000000  0.0000000000000000  0.5000000000000000
  0.2719078603350710  0.0219078603350710  0.2500000000000000
  0.2280921396649290  0.4780921396649290  0.7500000000000000
  0.7500000000000000  0.7719078603350711  0.0219078603350710
  0.2500000000000000  0.7280921396649289  0.4780921396649290
  0.9780921396649289  0.7500000000000000  0.7280921396649289
  0.5219078603350711  0.2500000000000000  0.7719078603350711
  0.7280921396649289  0.9780921396649289  0.7500000000000000
  0.7719078603350711  0.5219078603350711  0.2500000000000000
  0.2500000000000000  0.2280921396649290  0.9780921396649289
  0.7500000000000000  0.2719078603350710  0.5219078603350711
  0.0219078603350710  0.2500000000000000  0.2719078603350710
  0.4780921396649290  0.7500000000000000  0.2280921396649290
  0.9931323162562377  0.4692363158267030  0.2342331058586768
  0.7649967900319808  0.0307636841732970  0.0238960004295347
  0.5068676837437623  0.7411007896024462  0.4761039995704653
  0.7350032099680192  0.7588992103975538  0.2657668941413232
  0.7657668941413233  0.2350032099680191  0.7588992103975538
  0.9761039995704653  0.0068676837437623  0.7411007896024462
  0.5238960004295347  0.2649967900319808  0.0307636841732970
  0.7342331058586767  0.4931323162562377  0.4692363158267030
  0.2411007896024462  0.4761039995704653  0.0068676837437623
  0.2588992103975538  0.2657668941413232  0.2350032099680191
  0.9692363158267031  0.2342331058586768  0.4931323162562377
  0.5307636841732969  0.0238960004295347  0.2649967900319808
  0.0068676837437623  0.5307636841732969  0.7657668941413233
  0.2350032099680191  0.9692363158267031  0.9761039995704653
  0.4931323162562377  0.2588992103975538  0.5238960004295347
  0.2649967900319808  0.2411007896024462  0.7342331058586767
  0.2342331058586768  0.7649967900319808  0.2411007896024462
  0.0238960004295347  0.9931323162562377  0.2588992103975538
  0.4761039995704653  0.7350032099680192  0.9692363158267031
  0.2657668941413232  0.5068676837437623  0.5307636841732969
  0.7588992103975538  0.5238960004295347  0.9931323162562377
  0.7411007896024462  0.7342331058586767  0.7649967900319808
  0.0307636841732970  0.7657668941413233  0.5068676837437623
  0.4692363158267030  0.9761039995704653  0.7350032099680192
 
  0.00000000E+00  0.00000000E+00  0.00000000E+00
  0.00000000E+00  0.00000000E+00  0.00000000E+00
  0.00000000E+00  0.00000000E+00  0.00000000E+00
  0.00000000E+00  0.00000000E+00  0.00000000E+00
  0.00000000E+00  0.00000000E+00  0.00000000E+00
  0.00000000E+00  0.00000000E+00  0.00000000E+00
  0.00000000E+00  0.00000000E+00  0.00000000E+00
  0.00000000E+00  0.00000000E+00  0.00000000E+00
  0.00000000E+00  0.00000000E+00  0.00000000E+00
  0.00000000E+00  0.00000000E+00  0.00000000E+00
  0.00000000E+00  0.00000000E+00  0.00000000E+00
  0.00000000E+00  0.00000000E+00  0.00000000E+00
  0.00000000E+00  0.00000000E+00  0.00000000E+00
  0.00000000E+00  0.00000000E+00  0.00000000E+00
  0.00000000E+00  0.00000000E+00  0.00000000E+00
  0.00000000E+00  0.00000000E+00  0.00000000E+00
  0.00000000E+00  0.00000000E+00  0.00000000E+00
  0.00000000E+00  0.00000000E+00  0.00000000E+00
  0.00000000E+00  0.00000000E+00  0.00000000E+00
  0.00000000E+00  0.00000000E+00  0.00000000E+00
  0.00000000E+00  0.00000000E+00  0.00000000E+00
  0.00000000E+00  0.00000000E+00  0.00000000E+00
  0.00000000E+00  0.00000000E+00  0.00000000E+00
  0.00000000E+00  0.00000000E+00  0.00000000E+00
  0.00000000E+00  0.00000000E+00  0.00000000E+00
  0.00000000E+00  0.00000000E+00  0.00000000E+00
  0.00000000E+00  0.00000000E+00  0.00000000E+00
  0.00000000E+00  0.00000000E+00  0.00000000E+00
  0.00000000E+00  0.00000000E+00  0.00000000E+00
  0.00000000E+00  0.00000000E+00  0.00000000E+00
  0.00000000E+00  0.00000000E+00  0.00000000E+00
  0.00000000E+00  0.00000000E+00  0.00000000E+00
  0.00000000E+00  0.00000000E+00  0.00000000E+00
  0.00000000E+00  0.00000000E+00  0.00000000E+00
  0.00000000E+00  0.00000000E+00  0.00000000E+00
  0.00000000E+00  0.00000000E+00  0.00000000E+00
  0.00000000E+00  0.00000000E+00  0.00000000E+00
  0.00000000E+00  0.00000000E+00  0.00000000E+00
  0.00000000E+00  0.00000000E+00  0.00000000E+00
  0.00000000E+00  0.00000000E+00  0.00000000E+00
