Ag9In4   [CUB,CUB,cP52] (STD_PRIM doi:10
   1.00000000000000     
    10.0444514868374029   -0.0000000000000000   -0.0000000000000000
     0.0000000000000000   10.0444514868374029    0.0000000000000000
     0.0000000000000000   -0.0000000000000000   10.0444514868374029
  36  16
Direct
  0.6046624351695761  0.6046624351695761  0.6046624351695761
  0.3953375648304240  0.3953375648304240  0.6046624351695761
  0.3953375648304240  0.6046624351695761  0.3953375648304240
  0.6046624351695761  0.3953375648304240  0.3953375648304240
  0.8304939431111706  0.8304939431111706  0.8304939431111706
  0.1695060568888294  0.1695060568888294  0.8304939431111706
  0.1695060568888294  0.8304939431111706  0.1695060568888294
  0.8304939431111706  0.1695060568888294  0.1695060568888294
  0.3244695689831844  0.3244695689831844  0.3244695689831844
  0.6755304310168156  0.6755304310168156  0.3244695689831844
  0.6755304310168156  0.3244695689831844  0.6755304310168156
  0.3244695689831844  0.6755304310168156  0.6755304310168156
 -0.0000000000000000 -0.0000000000000000  0.3568226993119878
 -0.0000000000000000  0.0000000000000000  0.6431773006880122
  0.3568226993119878 -0.0000000000000000  0.0000000000000000
  0.6431773006880122  0.0000000000000000 -0.0000000000000000
  0.0000000000000000  0.3568226993119878  0.0000000000000000
 -0.0000000000000000  0.6431773006880122 -0.0000000000000000
  0.5000000000000000  0.5000000000000000  0.8547077905711636
  0.5000000000000000  0.5000000000000000  0.1452922094288363
  0.8547077905711636  0.5000000000000000  0.5000000000000000
  0.1452922094288363  0.5000000000000000  0.5000000000000000
  0.5000000000000000  0.8547077905711636  0.5000000000000000
  0.5000000000000000  0.1452922094288363  0.5000000000000000
  0.3183231208162120  0.3183231208162120  0.0281900177534691
  0.6816768791837879  0.6816768791837879  0.0281900177534691
  0.6816768791837879  0.3183231208162120  0.9718099822465309
  0.3183231208162120  0.6816768791837879  0.9718099822465309
  0.0281900177534691  0.3183231208162120  0.3183231208162120
  0.0281900177534691  0.6816768791837879  0.6816768791837879
  0.9718099822465309  0.6816768791837879  0.3183231208162120
  0.9718099822465309  0.3183231208162120  0.6816768791837879
  0.3183231208162120  0.0281900177534691  0.3183231208162120
  0.6816768791837879  0.0281900177534691  0.6816768791837879
  0.3183231208162120  0.9718099822465309  0.6816768791837879
  0.6816768791837879  0.9718099822465309  0.3183231208162120
  0.1226584378927944  0.1226584378927944  0.1226584378927944
  0.8773415621072057  0.8773415621072057  0.1226584378927944
  0.8773415621072057  0.1226584378927944  0.8773415621072057
  0.1226584378927944  0.8773415621072057  0.8773415621072057
  0.8104480219705149  0.8104480219705149  0.5337368323281955
  0.1895519780294852  0.1895519780294852  0.5337368323281955
  0.1895519780294852  0.8104480219705149  0.4662631676718045
  0.8104480219705149  0.1895519780294852  0.4662631676718045
  0.5337368323281955  0.8104480219705149  0.8104480219705149
  0.5337368323281955  0.1895519780294852  0.1895519780294852
  0.4662631676718045  0.1895519780294852  0.8104480219705149
  0.4662631676718045  0.8104480219705149  0.1895519780294852
  0.8104480219705149  0.5337368323281955  0.8104480219705149
  0.1895519780294852  0.5337368323281955  0.1895519780294852
  0.8104480219705149  0.4662631676718045  0.1895519780294852
  0.1895519780294852  0.4662631676718045  0.8104480219705149
 
  0.00000000E+00  0.00000000E+00  0.00000000E+00
  0.00000000E+00  0.00000000E+00  0.00000000E+00
  0.00000000E+00  0.00000000E+00  0.00000000E+00
  0.00000000E+00  0.00000000E+00  0.00000000E+00
  0.00000000E+00  0.00000000E+00  0.00000000E+00
  0.00000000E+00  0.00000000E+00  0.00000000E+00
  0.00000000E+00  0.00000000E+00  0.00000000E+00
  0.00000000E+00  0.00000000E+00  0.00000000E+00
  0.00000000E+00  0.00000000E+00  0.00000000E+00
  0.00000000E+00  0.00000000E+00  0.00000000E+00
  0.00000000E+00  0.00000000E+00  0.00000000E+00
  0.00000000E+00  0.00000000E+00  0.00000000E+00
  0.00000000E+00  0.00000000E+00  0.00000000E+00
  0.00000000E+00  0.00000000E+00  0.00000000E+00
  0.00000000E+00  0.00000000E+00  0.00000000E+00
  0.00000000E+00  0.00000000E+00  0.00000000E+00
  0.00000000E+00  0.00000000E+00  0.00000000E+00
  0.00000000E+00  0.00000000E+00  0.00000000E+00
  0.00000000E+00  0.00000000E+00  0.00000000E+00
  0.00000000E+00  0.00000000E+00  0.00000000E+00
  0.00000000E+00  0.00000000E+00  0.00000000E+00
  0.00000000E+00  0.00000000E+00  0.00000000E+00
  0.00000000E+00  0.00000000E+00  0.00000000E+00
  0.00000000E+00  0.00000000E+00  0.00000000E+00
  0.00000000E+00  0.00000000E+00  0.00000000E+00
  0.00000000E+00  0.00000000E+00  0.00000000E+00
  0.00000000E+00  0.00000000E+00  0.00000000E+00
  0.00000000E+00  0.00000000E+00  0.00000000E+00
  0.00000000E+00  0.00000000E+00  0.00000000E+00
  0.00000000E+00  0.00000000E+00  0.00000000E+00
  0.00000000E+00  0.00000000E+00  0.00000000E+00
  0.00000000E+00  0.00000000E+00  0.00000000E+00
  0.00000000E+00  0.00000000E+00  0.00000000E+00
  0.00000000E+00  0.00000000E+00  0.00000000E+00
  0.00000000E+00  0.00000000E+00  0.00000000E+00
  0.00000000E+00  0.00000000E+00  0.00000000E+00
  0.00000000E+00  0.00000000E+00  0.00000000E+00
  0.00000000E+00  0.00000000E+00  0.00000000E+00
  0.00000000E+00  0.00000000E+00  0.00000000E+00
  0.00000000E+00  0.00000000E+00  0.00000000E+00
  0.00000000E+00  0.00000000E+00  0.00000000E+00
  0.00000000E+00  0.00000000E+00  0.00000000E+00
  0.00000000E+00  0.00000000E+00  0.00000000E+00
  0.00000000E+00  0.00000000E+00  0.00000000E+00
  0.00000000E+00  0.00000000E+00  0.00000000E+00
  0.00000000E+00  0.00000000E+00  0.00000000E+00
  0.00000000E+00  0.00000000E+00  0.00000000E+00
  0.00000000E+00  0.00000000E+00  0.00000000E+00
  0.00000000E+00  0.00000000E+00  0.00000000E+00
  0.00000000E+00  0.00000000E+00  0.00000000E+00
  0.00000000E+00  0.00000000E+00  0.00000000E+00
  0.00000000E+00  0.00000000E+00  0.00000000E+00
