Ni1Pd1Te1   [ORC,ORC,oP12] (STD_PRIM doi
   1.00000000000000     
     3.7821058348701198    0.0000000000000000    0.0000000000000000
    -0.0000000000000000    6.3284903196373072    0.0000000000000000
     0.0000000000000000    0.0000000000000000    8.4172562479261526
   4   4   4
Direct
  0.7500000000000000  0.5109931453482680  0.1064976423348817
  0.2500000000000000  0.0109931453482679  0.3935023576651183
  0.2500000000000000  0.4890068546517320  0.8935023576651182
  0.7500000000000000  0.9890068546517320  0.6064976423348818
  0.7500000000000000  0.3453127806431580  0.4144909644041780
  0.2500000000000000  0.8453127806431581  0.0855090355958220
  0.2500000000000000  0.6546872193568419  0.5855090355958220
  0.7500000000000000  0.1546872193568421  0.9144909644041780
  0.7500000000000000  0.7601755209684214  0.3437009062894839
  0.2500000000000000  0.2601755209684212  0.1562990937105161
  0.2500000000000000  0.2398244790315787  0.6562990937105161
  0.7500000000000000  0.7398244790315786  0.8437009062894839
 
  0.00000000E+00  0.00000000E+00  0.00000000E+00
  0.00000000E+00  0.00000000E+00  0.00000000E+00
  0.00000000E+00  0.00000000E+00  0.00000000E+00
  0.00000000E+00  0.00000000E+00  0.00000000E+00
  0.00000000E+00  0.00000000E+00  0.00000000E+00
  0.00000000E+00  0.00000000E+00  0.00000000E+00
  0.00000000E+00  0.00000000E+00  0.00000000E+00
  0.00000000E+00  0.00000000E+00  0.00000000E+00
  0.00000000E+00  0.00000000E+00  0.00000000E+00
  0.00000000E+00  0.00000000E+00  0.00000000E+00
  0.00000000E+00  0.00000000E+00  0.00000000E+00
  0.00000000E+00  0.00000000E+00  0.00000000E+00
