Au1Ho1Ni4   [FCC,FCC,cF24] (STD_PRIM doi
   1.22474500000000     
     0.0000000000000000    2.8383998667865251    2.8383998667865251
     2.8383998667865251    0.0000000000000000    2.8383998667865251
     2.8383998667865251    2.8383998667865251    0.0000000000000000
   1   1   4
Direct
  0.7500000000000000  0.7500000000000000  0.7500000000000000
  0.0000000000000000  0.0000000000000000  0.0000000000000000
  0.3759268637107220  0.3759268637107220  0.3759268637107433
  0.3759268637107220  0.8722194088678057  0.3759268637107291
  0.3759268637107220  0.3759268637107220  0.8722194088678128
  0.8722194088678057  0.3759268637107220  0.3759268637107291
 
  0.00000000E+00  0.00000000E+00  0.00000000E+00
  0.00000000E+00  0.00000000E+00  0.00000000E+00
  0.00000000E+00  0.00000000E+00  0.00000000E+00
  0.00000000E+00  0.00000000E+00  0.00000000E+00
  0.00000000E+00  0.00000000E+00  0.00000000E+00
  0.00000000E+00  0.00000000E+00  0.00000000E+00
