Ir1Zr3   [BCT,BCT1,tI32] (STD_PRIM doi:1
   1.00000000000000     
    -5.3920178655657240    5.3920178655657240    2.8558701534443642
     5.3920178655657240   -5.3920178655657240    2.8558701534443642
     5.3920178655657240    5.3920178655657240   -2.8558701534443642
   4  12
Direct
  0.2923095985179833  0.0000000000000000  0.2923095985179833
  0.7076904014820167  0.0000000000000000  0.7076904014820167
  0.0000000000000000  0.7076904014820167  0.7076904014820167
  0.0000000000000000  0.2923095985179833  0.2923095985179833
  0.8547002019758911  0.5000000000000000  0.3547002019758911
  0.1452997980241089  0.5000000000000000  0.6452997980241089
  0.5000000000000000  0.1452997980241089  0.6452997980241089
  0.5000000000000000  0.8547002019758911  0.3547002019758911
  0.8331421717973857  0.8331421717973857  0.1920943842456560
  0.6410477875517226  0.6410477875517226  0.8079056157543441
  0.3589522124482774  0.1668578282026142 -0.0000000000000000
  0.1668578282026142  0.3589522124482774 -0.0000000000000000
  0.0420537656141896  0.0420537656141896  0.5898660828794902
  0.4521876827346994  0.4521876827346994  0.4101339171205098
  0.5478123172653006  0.9579462343858104  0.0000000000000000
  0.9579462343858104  0.5478123172653006  0.0000000000000000
 
  0.00000000E+00  0.00000000E+00  0.00000000E+00
  0.00000000E+00  0.00000000E+00  0.00000000E+00
  0.00000000E+00  0.00000000E+00  0.00000000E+00
  0.00000000E+00  0.00000000E+00  0.00000000E+00
  0.00000000E+00  0.00000000E+00  0.00000000E+00
  0.00000000E+00  0.00000000E+00  0.00000000E+00
  0.00000000E+00  0.00000000E+00  0.00000000E+00
  0.00000000E+00  0.00000000E+00  0.00000000E+00
  0.00000000E+00  0.00000000E+00  0.00000000E+00
  0.00000000E+00  0.00000000E+00  0.00000000E+00
  0.00000000E+00  0.00000000E+00  0.00000000E+00
  0.00000000E+00  0.00000000E+00  0.00000000E+00
  0.00000000E+00  0.00000000E+00  0.00000000E+00
  0.00000000E+00  0.00000000E+00  0.00000000E+00
  0.00000000E+00  0.00000000E+00  0.00000000E+00
  0.00000000E+00  0.00000000E+00  0.00000000E+00
