B2C2Sc1   [ORC,ORC,oP20] (STD_PRIM doi:1
   1.00000000000000     
     3.5204749337685635    0.0000000000000000    0.0000000000000000
     0.0000000000000000    5.3013912141614892    0.0000000000000000
     0.0000000000000000    0.0000000000000000   10.2298493487632260
   8   8   4
Direct
  0.5000000000000000  0.3557896540223153  0.5354273775818165
  0.5000000000000000  0.6442103459776848  0.4645726224181835
  0.5000000000000000  0.1442103459776847  0.0354273775818165
  0.5000000000000000  0.8557896540223152  0.9645726224181835
  0.5000000000000000  0.4863520677854529  0.8111925264351527
  0.5000000000000000  0.5136479322145471  0.1888074735648472
  0.5000000000000000  0.0136479322145471  0.3111925264351528
  0.5000000000000000  0.9863520677854529  0.6888074735648473
  0.5000000000000000  0.3928577264517401  0.9554479927631351
  0.5000000000000000  0.6071422735482599  0.0445520072368650
  0.5000000000000000  0.1071422735482599  0.4554479927631351
  0.5000000000000000  0.8928577264517401  0.5445520072368649
  0.5000000000000000  0.2960234933334558  0.6905814915021208
  0.5000000000000000  0.7039765066665442  0.3094185084978792
  0.5000000000000000  0.2039765066665442  0.1905814915021208
  0.5000000000000000  0.7960234933334558  0.8094185084978792
  0.0000000000000000  0.1379099691051032  0.8521153031292555
  0.0000000000000000  0.8620900308948968  0.1478846968707444
  0.0000000000000000  0.3620900308948968  0.3521153031292555
  0.0000000000000000  0.6379099691051032  0.6478846968707445
 
  0.00000000E+00  0.00000000E+00  0.00000000E+00
  0.00000000E+00  0.00000000E+00  0.00000000E+00
  0.00000000E+00  0.00000000E+00  0.00000000E+00
  0.00000000E+00  0.00000000E+00  0.00000000E+00
  0.00000000E+00  0.00000000E+00  0.00000000E+00
  0.00000000E+00  0.00000000E+00  0.00000000E+00
  0.00000000E+00  0.00000000E+00  0.00000000E+00
  0.00000000E+00  0.00000000E+00  0.00000000E+00
  0.00000000E+00  0.00000000E+00  0.00000000E+00
  0.00000000E+00  0.00000000E+00  0.00000000E+00
  0.00000000E+00  0.00000000E+00  0.00000000E+00
  0.00000000E+00  0.00000000E+00  0.00000000E+00
  0.00000000E+00  0.00000000E+00  0.00000000E+00
  0.00000000E+00  0.00000000E+00  0.00000000E+00
  0.00000000E+00  0.00000000E+00  0.00000000E+00
  0.00000000E+00  0.00000000E+00  0.00000000E+00
  0.00000000E+00  0.00000000E+00  0.00000000E+00
  0.00000000E+00  0.00000000E+00  0.00000000E+00
  0.00000000E+00  0.00000000E+00  0.00000000E+00
  0.00000000E+00  0.00000000E+00  0.00000000E+00
