Ni1P1Ta1   [ORC,ORC,oP12] (STD_PRIM doi:
   1.00000000000000     
     3.5737299923092856    0.0000000000000000    0.0000000000000000
     0.0000000000000000    6.1332991972607873    0.0000000000000000
     0.0000000000000000    0.0000000000000000    7.1137970862611377
   4   4   4
Direct
  0.2500000000000000  0.1498157341719155  0.4310633337410492
  0.7500000000000000  0.3501842658280845  0.9310633337410491
  0.7500000000000000  0.8501842658280845  0.5689366662589509
  0.2500000000000000  0.6498157341719155  0.0689366662589509
  0.2500000000000000  0.2847199501826240  0.1214096544885481
  0.7500000000000000  0.2152800498173759  0.6214096544885480
  0.7500000000000000  0.7152800498173759  0.8785903455114520
  0.2500000000000000  0.7847199501826241  0.3785903455114519
  0.2500000000000000  0.0199599482399904  0.8339186913890797
  0.7500000000000000  0.4800400517600096  0.3339186913890796
  0.7500000000000000  0.9800400517600096  0.1660813086109203
  0.2500000000000000  0.5199599482399904  0.6660813086109203
 
  0.00000000E+00  0.00000000E+00  0.00000000E+00
  0.00000000E+00  0.00000000E+00  0.00000000E+00
  0.00000000E+00  0.00000000E+00  0.00000000E+00
  0.00000000E+00  0.00000000E+00  0.00000000E+00
  0.00000000E+00  0.00000000E+00  0.00000000E+00
  0.00000000E+00  0.00000000E+00  0.00000000E+00
  0.00000000E+00  0.00000000E+00  0.00000000E+00
  0.00000000E+00  0.00000000E+00  0.00000000E+00
  0.00000000E+00  0.00000000E+00  0.00000000E+00
  0.00000000E+00  0.00000000E+00  0.00000000E+00
  0.00000000E+00  0.00000000E+00  0.00000000E+00
  0.00000000E+00  0.00000000E+00  0.00000000E+00
