C8   [BCC,BCC,cI16] (STD_PRIM doi:10.101
   1.00000000000000     
    -2.4382204512866235    2.4382204512866230    2.4382204512866235
     2.4382204512866235   -2.4382204512866230    2.4382204512866235
     2.4382204512866235    2.4382204512866230   -2.4382204512866235
   8
Direct
 -0.0000000000000000 -0.0000000000000000  0.6747739582602764
  0.6747739582602764 -0.0000000000000000 -0.0000000000000000
 -0.0000000000000000  0.6747739582602764  0.0000000000000000
  0.3252260417397235  0.3252260417397235  0.3252260417397235
  0.0000000000000000  0.0000000000000000  0.3252260417397235
  0.3252260417397235  0.0000000000000000  0.0000000000000000
  0.0000000000000000  0.3252260417397235 -0.0000000000000000
  0.6747739582602764  0.6747739582602764  0.6747739582602764
 
  0.00000000E+00  0.00000000E+00  0.00000000E+00
  0.00000000E+00  0.00000000E+00  0.00000000E+00
  0.00000000E+00  0.00000000E+00  0.00000000E+00
  0.00000000E+00  0.00000000E+00  0.00000000E+00
  0.00000000E+00  0.00000000E+00  0.00000000E+00
  0.00000000E+00  0.00000000E+00  0.00000000E+00
  0.00000000E+00  0.00000000E+00  0.00000000E+00
  0.00000000E+00  0.00000000E+00  0.00000000E+00
