Cu1Ti3   [TET,TET,tP4] (STD_PRIM doi:10.
   1.00000000000000     
     4.5025793531987750    0.0000000000000000    0.0000000000000000
     0.0000000000000000    4.5025793531987750    0.0000000000000000
     0.0000000000000000    0.0000000000000000    3.4460069040508050
   1   3
Direct
  0.0000000000000000  0.0000000000000000  0.0000000000000000
  0.5000000000000000  0.5000000000000000  0.0000000000000000
  0.0000000000000000  0.5000000000000000  0.5000000000000000
  0.5000000000000000  0.0000000000000000  0.5000000000000000
 
  0.00000000E+00  0.00000000E+00  0.00000000E+00
  0.00000000E+00  0.00000000E+00  0.00000000E+00
  0.00000000E+00  0.00000000E+00  0.00000000E+00
  0.00000000E+00  0.00000000E+00  0.00000000E+00
