Ga1Pd1   [CUB,CUB,cP8] (STD_PRIM doi:10.
   1.00000000000000     
     4.9420452261681875    0.0000000000000000    0.0000000000000000
    -0.0000000000000000    4.9420452261681875    0.0000000000000000
    -0.0000000000000000   -0.0000000000000000    4.9420452261681875
   4   4
Direct
  0.8428540716389551  0.8428540716389551  0.8428540716389551
  0.6571459283610449  0.1571459283610449  0.3428540716389551
  0.1571459283610449  0.3428540716389551  0.6571459283610449
  0.3428540716389551  0.6571459283610449  0.1571459283610449
  0.1423489155298467  0.1423489155298467  0.1423489155298467
  0.3576510844701534  0.8576510844701534  0.6423489155298466
  0.8576510844701534  0.6423489155298466  0.3576510844701534
  0.6423489155298466  0.3576510844701534  0.8576510844701534
 
  0.00000000E+00  0.00000000E+00  0.00000000E+00
  0.00000000E+00  0.00000000E+00  0.00000000E+00
  0.00000000E+00  0.00000000E+00  0.00000000E+00
  0.00000000E+00  0.00000000E+00  0.00000000E+00
  0.00000000E+00  0.00000000E+00  0.00000000E+00
  0.00000000E+00  0.00000000E+00  0.00000000E+00
  0.00000000E+00  0.00000000E+00  0.00000000E+00
  0.00000000E+00  0.00000000E+00  0.00000000E+00
