B4H16Hf1   [CUB,CUB,cP21] (STD_PRIM doi:
   1.00000000000000     
     6.0191319417879869   -0.0000000000000000    0.0000000000000000
    -0.0000000000000000    6.0191319417879869   -0.0000000000000000
     0.0000000000000000   -0.0000000000000000    6.0191319417879869
   4  16   1
Direct
  0.2196788795789947  0.2196788795789947  0.2196788795789947
  0.7803211204210053  0.7803211204210053  0.2196788795789947
  0.7803211204210053  0.2196788795789947  0.7803211204210053
  0.2196788795789947  0.7803211204210053  0.7803211204210053
  0.3342628971657863  0.3342628971657863  0.3342628971657863
  0.6657371028342137  0.6657371028342137  0.3342628971657863
  0.6657371028342137  0.3342628971657863  0.6657371028342137
  0.3342628971657863  0.6657371028342137  0.6657371028342137
  0.2503578693187297  0.2503578693187297  0.0168295118441424
  0.7496421306812703  0.7496421306812703  0.0168295118441424
  0.7496421306812703  0.2503578693187297  0.9831704881558576
  0.2503578693187297  0.7496421306812703  0.9831704881558576
  0.0168295118441424  0.2503578693187297  0.2503578693187297
  0.0168295118441424  0.7496421306812703  0.7496421306812703
  0.9831704881558576  0.7496421306812703  0.2503578693187297
  0.9831704881558576  0.2503578693187297  0.7496421306812703
  0.2503578693187297  0.0168295118441424  0.2503578693187297
  0.7496421306812703  0.0168295118441424  0.7496421306812703
  0.2503578693187297  0.9831704881558576  0.7496421306812703
  0.7496421306812703  0.9831704881558576  0.2503578693187297
  0.0000000000000000  0.0000000000000000  0.0000000000000000
 
  0.00000000E+00  0.00000000E+00  0.00000000E+00
  0.00000000E+00  0.00000000E+00  0.00000000E+00
  0.00000000E+00  0.00000000E+00  0.00000000E+00
  0.00000000E+00  0.00000000E+00  0.00000000E+00
  0.00000000E+00  0.00000000E+00  0.00000000E+00
  0.00000000E+00  0.00000000E+00  0.00000000E+00
  0.00000000E+00  0.00000000E+00  0.00000000E+00
  0.00000000E+00  0.00000000E+00  0.00000000E+00
  0.00000000E+00  0.00000000E+00  0.00000000E+00
  0.00000000E+00  0.00000000E+00  0.00000000E+00
  0.00000000E+00  0.00000000E+00  0.00000000E+00
  0.00000000E+00  0.00000000E+00  0.00000000E+00
  0.00000000E+00  0.00000000E+00  0.00000000E+00
  0.00000000E+00  0.00000000E+00  0.00000000E+00
  0.00000000E+00  0.00000000E+00  0.00000000E+00
  0.00000000E+00  0.00000000E+00  0.00000000E+00
  0.00000000E+00  0.00000000E+00  0.00000000E+00
  0.00000000E+00  0.00000000E+00  0.00000000E+00
  0.00000000E+00  0.00000000E+00  0.00000000E+00
  0.00000000E+00  0.00000000E+00  0.00000000E+00
  0.00000000E+00  0.00000000E+00  0.00000000E+00
