Ca1In2   [HEX,HEX,hP6] (STD_PRIM doi:10.
   1.00000000000000     
     2.4781398754286288   -4.2921529702773702    0.0000000000000000
     2.4781398754286288    4.2921529702773702   -0.0000000000000000
     0.0000000000000000    0.0000000000000000    7.7899819588201655
   2   4
Direct
  0.0000058756382666  0.9999941243617334  0.2500000000000000
  0.9999941243617334  0.0000058756382666  0.7500000000000000
  0.6666786703768686  0.3333213296231314  0.0476921452408458
  0.3333213296231314  0.6666786703768686  0.5476921452408458
  0.3333213296231314  0.6666786703768686  0.9523078547591542
  0.6666786703768686  0.3333213296231314  0.4523078547591542
 
  0.00000000E+00  0.00000000E+00  0.00000000E+00
  0.00000000E+00  0.00000000E+00  0.00000000E+00
  0.00000000E+00  0.00000000E+00  0.00000000E+00
  0.00000000E+00  0.00000000E+00  0.00000000E+00
  0.00000000E+00  0.00000000E+00  0.00000000E+00
  0.00000000E+00  0.00000000E+00  0.00000000E+00
