Ag1I1   [MCL,MCL,mP4] (STD_PRIM doi:10.1
   1.00000000000000     
     4.3594900178876363    0.0000000000000000    0.0000000000000000
     0.0000000000000000    4.3482411847416147   -0.3223052012306713
     0.0000000000000000    0.4355720486148696    6.1585284611905253
   2   2
Direct
  0.2500000000000000  0.7529787160683904  0.2558833621740685
  0.7500000000000000  0.2470212839316097  0.7441166378259313
  0.2500000000000000  0.7480539268579347  0.7522043217357528
  0.7500000000000000  0.2519460731420654  0.2477956782642471
 
  0.00000000E+00  0.00000000E+00  0.00000000E+00
  0.00000000E+00  0.00000000E+00  0.00000000E+00
  0.00000000E+00  0.00000000E+00  0.00000000E+00
  0.00000000E+00  0.00000000E+00  0.00000000E+00
