Cs1Na2   [HEX,HEX,hP12] (STD_PRIM doi:10
   1.00000000000000     
     3.8310269579283731   -6.6361805463512891    0.0000000000000000
     3.8310269579283731    6.6361805463512891   -0.0000000000000000
     0.0000000000000000    0.0000000000000000   12.7475746242599666
   4   8
Direct
  0.3333294978321162  0.6666705021678837  0.0627889408558978
  0.6666705021678837  0.3333294978321162  0.5627889408558978
  0.6666705021678837  0.3333294978321162  0.9372110591441022
  0.3333294978321162  0.6666705021678837  0.4372110591441022
  0.0000000000000000  0.0000000000000000  0.0000000000000000
  0.0000000000000000  0.0000000000000000  0.5000000000000000
  0.8345753961579352  0.6691614219621377  0.2500000000000000
  0.3308385780378623  0.1654246038420648  0.2500000000000000
  0.8345810800597663  0.1654189199402337  0.2500000000000000
  0.1654246038420648  0.3308385780378623  0.7500000000000000
  0.6691614219621377  0.8345753961579352  0.7500000000000000
  0.1654189199402337  0.8345810800597663  0.7500000000000000
 
  0.00000000E+00  0.00000000E+00  0.00000000E+00
  0.00000000E+00  0.00000000E+00  0.00000000E+00
  0.00000000E+00  0.00000000E+00  0.00000000E+00
  0.00000000E+00  0.00000000E+00  0.00000000E+00
  0.00000000E+00  0.00000000E+00  0.00000000E+00
  0.00000000E+00  0.00000000E+00  0.00000000E+00
  0.00000000E+00  0.00000000E+00  0.00000000E+00
  0.00000000E+00  0.00000000E+00  0.00000000E+00
  0.00000000E+00  0.00000000E+00  0.00000000E+00
  0.00000000E+00  0.00000000E+00  0.00000000E+00
  0.00000000E+00  0.00000000E+00  0.00000000E+00
  0.00000000E+00  0.00000000E+00  0.00000000E+00
