As4O6   [FCC,FCC,cF80] (STD_PRIM doi:10.
   1.22474500000000     
    -0.0000000000000000    4.6997198598926690    4.6997198598926699
     4.6997198598926690   -0.0000000000000000    4.6997198598926699
     4.6997198598926690    4.6997198598926690    0.0000000000000000
   8  12
Direct
  0.2255617883284434  0.3233146350146555  0.2255617883284434
  0.2255617883284434  0.7255617883284434  0.2255617883284434
  0.2255617883284434  0.7255617883284434  0.8233146350146555
  0.8233146350146555  0.7255617883284434  0.2255617883284434
  0.7744382116715566  0.2744382116715566  0.7744382116715566
  0.7744382116715566  0.6766853649853445  0.7744382116715566
  0.7744382116715566  0.2744382116715566  0.1766853649853445
  0.1766853649853445  0.2744382116715566  0.7744382116715566
  0.9529389495028654  0.4529389495028653  0.2970610504971347
  0.2970610504971347  0.7970610504971346  0.9529389495028654
  0.2970610504971347  0.4529389495028653  0.9529389495028654
  0.9529389495028654  0.7970610504971346  0.2970610504971347
  0.2970610504971347  0.4529389495028653  0.2970610504971347
  0.9529389495028654  0.7970610504971346  0.9529389495028654
  0.0470610504971347  0.2029389495028653  0.7029389495028654
  0.7029389495028654  0.5470610504971346  0.0470610504971347
  0.7029389495028654  0.2029389495028653  0.0470610504971347
  0.0470610504971347  0.5470610504971346  0.7029389495028654
  0.7029389495028654  0.5470610504971346  0.7029389495028654
  0.0470610504971347  0.2029389495028653  0.0470610504971347
 
  0.00000000E+00  0.00000000E+00  0.00000000E+00
  0.00000000E+00  0.00000000E+00  0.00000000E+00
  0.00000000E+00  0.00000000E+00  0.00000000E+00
  0.00000000E+00  0.00000000E+00  0.00000000E+00
  0.00000000E+00  0.00000000E+00  0.00000000E+00
  0.00000000E+00  0.00000000E+00  0.00000000E+00
  0.00000000E+00  0.00000000E+00  0.00000000E+00
  0.00000000E+00  0.00000000E+00  0.00000000E+00
  0.00000000E+00  0.00000000E+00  0.00000000E+00
  0.00000000E+00  0.00000000E+00  0.00000000E+00
  0.00000000E+00  0.00000000E+00  0.00000000E+00
  0.00000000E+00  0.00000000E+00  0.00000000E+00
  0.00000000E+00  0.00000000E+00  0.00000000E+00
  0.00000000E+00  0.00000000E+00  0.00000000E+00
  0.00000000E+00  0.00000000E+00  0.00000000E+00
  0.00000000E+00  0.00000000E+00  0.00000000E+00
  0.00000000E+00  0.00000000E+00  0.00000000E+00
  0.00000000E+00  0.00000000E+00  0.00000000E+00
  0.00000000E+00  0.00000000E+00  0.00000000E+00
  0.00000000E+00  0.00000000E+00  0.00000000E+00
