P1Pt1Sc1   [ORC,ORC,oP12] (STD_PRIM doi:
   1.00000000000000     
     4.0294896665022426    0.0000000000000000   -0.0000000000000000
     0.0000000000000000    7.3939887148738856    0.0000000000000000
     0.0000000000000000    0.0000000000000000    7.0260634661491714
   4   4   4
Direct
  0.2500000000000000  0.2499559637418365  0.9140697726741828
  0.7500000000000000  0.2500440362581635  0.4140697726741827
  0.7500000000000000  0.7500440362581634  0.0859302273258173
  0.2500000000000000  0.7499559637418366  0.5859302273258172
  0.2500000000000000  0.2512744847836615  0.5819836274112825
  0.7500000000000000  0.2487255152163385  0.0819836274112826
  0.7500000000000000  0.7487255152163386  0.4180163725887174
  0.2500000000000000  0.7512744847836614  0.9180163725887175
  0.2500000000000000  0.9995812769039247  0.2520771016399773
  0.7500000000000000  0.5004187230960753  0.7520771016399772
  0.7500000000000000  0.0004187230960753  0.7479228983600228
  0.2500000000000000  0.4995812769039247  0.2479228983600227
 
  0.00000000E+00  0.00000000E+00  0.00000000E+00
  0.00000000E+00  0.00000000E+00  0.00000000E+00
  0.00000000E+00  0.00000000E+00  0.00000000E+00
  0.00000000E+00  0.00000000E+00  0.00000000E+00
  0.00000000E+00  0.00000000E+00  0.00000000E+00
  0.00000000E+00  0.00000000E+00  0.00000000E+00
  0.00000000E+00  0.00000000E+00  0.00000000E+00
  0.00000000E+00  0.00000000E+00  0.00000000E+00
  0.00000000E+00  0.00000000E+00  0.00000000E+00
  0.00000000E+00  0.00000000E+00  0.00000000E+00
  0.00000000E+00  0.00000000E+00  0.00000000E+00
  0.00000000E+00  0.00000000E+00  0.00000000E+00
