Ge1O3Sr1 #189 - (Ge1O3Sr1_ICSD_28603) - 
   1.00000000000000     
     3.5211212938412522   -6.0987609805457108   -0.0000000000000000
     3.5211212938412522    6.0987609805457108    0.0000000000000000
     0.0000000000000000    0.0000000000000000    5.7816432134015674
   3   9   3
Direct
  0.7302913934328558  0.0000000000000000 -0.0000000000000000
  0.0000000000000000  0.7302913934328558  0.0000000000000000
  0.2697086065671442  0.2697086065671442  0.0000000000000000
  0.6373837135674798  0.0000000000000000  0.2794779650602386
  0.0000000000000000  0.6373837135674798  0.2794779650602386
  0.3626162864325203  0.3626162864325203  0.2794779650602386
  0.6373837135674798  0.0000000000000000  0.7205220349397614
 -0.0000000000000000  0.6373837135674798  0.7205220349397614
  0.3626162864325203  0.3626162864325203  0.7205220349397614
  0.2446398562844493  0.0000000000000000  0.0000000000000000
 -0.0000000000000000  0.2446398562844493 -0.0000000000000000
  0.7553601437155506  0.7553601437155506 -0.0000000000000000
  0.3370679123210679  0.0000000000000000  0.5000000000000000
  0.0000000000000000  0.3370679123210679  0.5000000000000000
  0.6629320876789321  0.6629320876789321  0.5000000000000000
 
  0.00000000E+00  0.00000000E+00  0.00000000E+00
  0.00000000E+00  0.00000000E+00  0.00000000E+00
  0.00000000E+00  0.00000000E+00  0.00000000E+00
  0.00000000E+00  0.00000000E+00  0.00000000E+00
  0.00000000E+00  0.00000000E+00  0.00000000E+00
  0.00000000E+00  0.00000000E+00  0.00000000E+00
  0.00000000E+00  0.00000000E+00  0.00000000E+00
  0.00000000E+00  0.00000000E+00  0.00000000E+00
  0.00000000E+00  0.00000000E+00  0.00000000E+00
  0.00000000E+00  0.00000000E+00  0.00000000E+00
  0.00000000E+00  0.00000000E+00  0.00000000E+00
  0.00000000E+00  0.00000000E+00  0.00000000E+00
  0.00000000E+00  0.00000000E+00  0.00000000E+00
  0.00000000E+00  0.00000000E+00  0.00000000E+00
  0.00000000E+00  0.00000000E+00  0.00000000E+00
