In1Pt1Sr1   [ORC,ORC,oP12] (STD_PRIM doi
   1.00000000000000     
     4.5369115035878043   -0.0000000000000000    0.0000000000000000
     0.0000000000000000    7.6173374098187319    0.0000000000000000
     0.0000000000000000    0.0000000000000000    8.5635988447849485
   4   4   4
Direct
  0.2500000000000000  0.1464129612035888  0.9346367154868106
  0.7500000000000000  0.3535870387964111  0.4346367154868105
  0.7500000000000000  0.8535870387964111  0.0653632845131895
  0.2500000000000000  0.6464129612035889  0.5653632845131894
  0.2500000000000000  0.2783254103469271  0.6210559642462335
  0.7500000000000000  0.2216745896530728  0.1210559642462336
  0.7500000000000000  0.7216745896530729  0.3789440357537664
  0.2500000000000000  0.7783254103469271  0.8789440357537665
  0.2500000000000000  0.0300281916732266  0.3217874964497140
  0.7500000000000000  0.4699718083267734  0.8217874964497140
  0.7500000000000000  0.9699718083267733  0.6782125035502860
  0.2500000000000000  0.5300281916732267  0.1782125035502860
 
  0.00000000E+00  0.00000000E+00  0.00000000E+00
  0.00000000E+00  0.00000000E+00  0.00000000E+00
  0.00000000E+00  0.00000000E+00  0.00000000E+00
  0.00000000E+00  0.00000000E+00  0.00000000E+00
  0.00000000E+00  0.00000000E+00  0.00000000E+00
  0.00000000E+00  0.00000000E+00  0.00000000E+00
  0.00000000E+00  0.00000000E+00  0.00000000E+00
  0.00000000E+00  0.00000000E+00  0.00000000E+00
  0.00000000E+00  0.00000000E+00  0.00000000E+00
  0.00000000E+00  0.00000000E+00  0.00000000E+00
  0.00000000E+00  0.00000000E+00  0.00000000E+00
  0.00000000E+00  0.00000000E+00  0.00000000E+00
