Cl6Rb2Te1   [FCC,FCC,cF36] (STD_PRIM doi
   1.22474500000000     
     0.0000000000000000    4.3187958451360178    4.3187958451360178
     4.3187958451360178    0.0000000000000000    4.3187958451360178
     4.3187958451360178    4.3187958451360178   -0.0000000000000000
   6   2   1
Direct
  0.2422116118195532  0.7577883881804468  0.2422116118195532
  0.7577883881804468  0.2422116118195532  0.7577883881804468
  0.2422116118195532  0.7577883881804468  0.7577883881804468
  0.7577883881804468  0.2422116118195532  0.2422116118195532
  0.2422116118195532  0.2422116118195532  0.7577883881804468
  0.7577883881804468  0.7577883881804468  0.2422116118195532
  0.7500000000000000  0.7500000000000000  0.7500000000000000
  0.2500000000000000  0.2500000000000000  0.2500000000000000
  0.0000000000000000 -0.0000000000000000  0.0000000000000000
 
  0.00000000E+00  0.00000000E+00  0.00000000E+00
  0.00000000E+00  0.00000000E+00  0.00000000E+00
  0.00000000E+00  0.00000000E+00  0.00000000E+00
  0.00000000E+00  0.00000000E+00  0.00000000E+00
  0.00000000E+00  0.00000000E+00  0.00000000E+00
  0.00000000E+00  0.00000000E+00  0.00000000E+00
  0.00000000E+00  0.00000000E+00  0.00000000E+00
  0.00000000E+00  0.00000000E+00  0.00000000E+00
  0.00000000E+00  0.00000000E+00  0.00000000E+00
