P2Pt5   [MCLC,MCLC1,mS28] (STD_PRIM doi:
   1.00000000000000     
     2.7131992621828300    5.4276235115800882    0.0256388804921310
    -2.7131992621828300    5.4276235115800882    0.0256388804921310
     0.0000000000000000    1.2304994549425559    7.4082676961877523
   4  10
Direct
  0.4341502418710704  0.2495441681349367  0.2725739125201496
  0.7504558318650633  0.5658497581289296  0.2274260874798504
  0.5658497581289296  0.7504558318650633  0.7274260874798504
  0.2495441681349367  0.4341502418710704  0.7725739125201496
  0.1148501547331700  0.8851498452668299  0.7500000000000000
  0.8851498452668299  0.1148501547331700  0.2500000000000000
  0.6059456722707567  0.1561612412335046  0.9665055020458641
  0.8438387587664954  0.3940543277292434  0.5334944979541359
  0.3940543277292434  0.8438387587664954  0.0334944979541360
  0.1561612412335046  0.6059456722707567  0.4665055020458640
  0.3684844358482749  0.9228773347115191  0.4026716828892725
  0.0771226652884809  0.6315155641517251  0.0973283171107275
  0.6315155641517251  0.0771226652884809  0.5973283171107274
  0.9228773347115191  0.3684844358482749  0.9026716828892726
 
  0.00000000E+00  0.00000000E+00  0.00000000E+00
  0.00000000E+00  0.00000000E+00  0.00000000E+00
  0.00000000E+00  0.00000000E+00  0.00000000E+00
  0.00000000E+00  0.00000000E+00  0.00000000E+00
  0.00000000E+00  0.00000000E+00  0.00000000E+00
  0.00000000E+00  0.00000000E+00  0.00000000E+00
  0.00000000E+00  0.00000000E+00  0.00000000E+00
  0.00000000E+00  0.00000000E+00  0.00000000E+00
  0.00000000E+00  0.00000000E+00  0.00000000E+00
  0.00000000E+00  0.00000000E+00  0.00000000E+00
  0.00000000E+00  0.00000000E+00  0.00000000E+00
  0.00000000E+00  0.00000000E+00  0.00000000E+00
  0.00000000E+00  0.00000000E+00  0.00000000E+00
  0.00000000E+00  0.00000000E+00  0.00000000E+00
