Be13Sr1   [FCC,FCC,cF112] (STD_PRIM doi:
   1.22474500000000     
     0.0000000000000000    4.2445586584959054    4.2445586584959054
     4.2445586584959054   -0.0000000000000000    4.2445586584959054
     4.2445586584959054    4.2445586584959054   -0.0000000000000000
  26   2
Direct
  0.0000000000000000  0.0000000000000000  0.0000000000000000
  0.5000000000000000  0.5000000000000000  0.5000000000000000
  0.9345725707748342  0.2858736549135990  0.7141263450864010
  0.2858736549135990  0.9345725707748342  0.0654274292251658
  0.7141263450864010  0.0654274292251658  0.9345725707748342
  0.0654274292251658  0.7141263450864010  0.2858736549135990
  0.2858736549135990  0.0654274292251658  0.7141263450864010
  0.9345725707748342  0.7141263450864010  0.0654274292251658
  0.0654274292251658  0.2858736549135990  0.9345725707748342
  0.7141263450864010  0.9345725707748342  0.2858736549135990
  0.0654274292251658  0.9345725707748342  0.7141263450864010
  0.7141263450864010  0.2858736549135990  0.0654274292251658
  0.2858736549135990  0.7141263450864010  0.9345725707748342
  0.9345725707748342  0.0654274292251658  0.2858736549135990
  0.5654274292251658  0.2141263450864010  0.4345725707748342
  0.2141263450864010  0.5654274292251658  0.7858736549135990
  0.7858736549135990  0.4345725707748342  0.2141263450864010
  0.4345725707748342  0.7858736549135990  0.5654274292251658
  0.2141263450864010  0.4345725707748342  0.5654274292251658
  0.5654274292251658  0.7858736549135990  0.2141263450864010
  0.4345725707748342  0.2141263450864010  0.7858736549135990
  0.7858736549135990  0.5654274292251658  0.4345725707748342
  0.4345725707748342  0.5654274292251658  0.2141263450864010
  0.7858736549135990  0.2141263450864010  0.5654274292251658
  0.2141263450864010  0.7858736549135990  0.4345725707748342
  0.5654274292251658  0.4345725707748342  0.7858736549135990
  0.2500000000000000  0.2500000000000000  0.2500000000000000
  0.7500000000000000  0.7500000000000000  0.7500000000000000
 
  0.00000000E+00  0.00000000E+00  0.00000000E+00
  0.00000000E+00  0.00000000E+00  0.00000000E+00
  0.00000000E+00  0.00000000E+00  0.00000000E+00
  0.00000000E+00  0.00000000E+00  0.00000000E+00
  0.00000000E+00  0.00000000E+00  0.00000000E+00
  0.00000000E+00  0.00000000E+00  0.00000000E+00
  0.00000000E+00  0.00000000E+00  0.00000000E+00
  0.00000000E+00  0.00000000E+00  0.00000000E+00
  0.00000000E+00  0.00000000E+00  0.00000000E+00
  0.00000000E+00  0.00000000E+00  0.00000000E+00
  0.00000000E+00  0.00000000E+00  0.00000000E+00
  0.00000000E+00  0.00000000E+00  0.00000000E+00
  0.00000000E+00  0.00000000E+00  0.00000000E+00
  0.00000000E+00  0.00000000E+00  0.00000000E+00
  0.00000000E+00  0.00000000E+00  0.00000000E+00
  0.00000000E+00  0.00000000E+00  0.00000000E+00
  0.00000000E+00  0.00000000E+00  0.00000000E+00
  0.00000000E+00  0.00000000E+00  0.00000000E+00
  0.00000000E+00  0.00000000E+00  0.00000000E+00
  0.00000000E+00  0.00000000E+00  0.00000000E+00
  0.00000000E+00  0.00000000E+00  0.00000000E+00
  0.00000000E+00  0.00000000E+00  0.00000000E+00
  0.00000000E+00  0.00000000E+00  0.00000000E+00
  0.00000000E+00  0.00000000E+00  0.00000000E+00
  0.00000000E+00  0.00000000E+00  0.00000000E+00
  0.00000000E+00  0.00000000E+00  0.00000000E+00
  0.00000000E+00  0.00000000E+00  0.00000000E+00
  0.00000000E+00  0.00000000E+00  0.00000000E+00
