La1Ru1Si3   [BCT,BCT2,tI10] (STD_PRIM do
   1.00000000000000     
    -2.1413885412592348    2.1413885412592348    4.9898315294738662
     2.1413885412592348   -2.1413885412592348    4.9898315294738662
     2.1413885412592348    2.1413885412592348   -4.9898315294738662
   1   1   3
Direct
  0.0006538424325861  0.0006538424325861 -0.0000000000000000
  0.6558056051413063  0.6558056051413063 -0.0000000000000000
  0.4171444492200070  0.4171444492200070  0.0000000000000000
  0.7601980516030509  0.2601980516030509  0.5000000000000000
  0.2601980516030509  0.7601980516030509  0.5000000000000000
 
  0.00000000E+00  0.00000000E+00  0.00000000E+00
  0.00000000E+00  0.00000000E+00  0.00000000E+00
  0.00000000E+00  0.00000000E+00  0.00000000E+00
  0.00000000E+00  0.00000000E+00  0.00000000E+00
  0.00000000E+00  0.00000000E+00  0.00000000E+00
