Be1C1N2   [BCT,BCT2,tI16] (STD_PRIM doi:
   1.00000000000000     
    -1.8815022724248278    1.8815022724248278    3.4924044058679917
     1.8815022724248278   -1.8815022724248278    3.4924044058679917
     1.8815022724248278    1.8815022724248278   -3.4924044058679917
   2   2   4
Direct
  0.0000000000000000  0.0000000000000000  0.0000000000000000
  0.7500000000000000  0.2500000000000000  0.5000000000000000
  0.5000000000000000  0.5000000000000000  0.0000000000000000
  0.2500000000000000  0.7500000000000000  0.5000000000000000
  0.3750000000000000  0.4203209174028402  0.5453209174028402
  0.8750000000000000  0.8296790825971598  0.4546790825971598
  0.1703209174028402  0.6250000000000000  0.0453209174028402
  0.5796790825971598  0.1250000000000000  0.9546790825971598
 
  0.00000000E+00  0.00000000E+00  0.00000000E+00
  0.00000000E+00  0.00000000E+00  0.00000000E+00
  0.00000000E+00  0.00000000E+00  0.00000000E+00
  0.00000000E+00  0.00000000E+00  0.00000000E+00
  0.00000000E+00  0.00000000E+00  0.00000000E+00
  0.00000000E+00  0.00000000E+00  0.00000000E+00
  0.00000000E+00  0.00000000E+00  0.00000000E+00
  0.00000000E+00  0.00000000E+00  0.00000000E+00
