B12Y1   [FCC,FCC,cF52] (STD_PRIM doi:10.
   1.22474500000000     
     0.0000000000000000    3.0607689596410590    3.0607689596410590
     3.0607689596410590    0.0000000000000000    3.0607689596410590
     3.0607689596410590    3.0607689596410590    0.0000000000000000
  12   1
Direct
  0.8376898845349743  0.5000000000000000  0.5000000000000000
  0.5000000000000000  0.1623101154650257  0.8376898845349743
  0.5000000000000000  0.8376898845349743  0.1623101154650257
  0.1623101154650257  0.5000000000000000  0.5000000000000000
  0.8376898845349743  0.1623101154650257  0.5000000000000000
  0.5000000000000000  0.5000000000000000  0.1623101154650257
  0.5000000000000000  0.5000000000000000  0.8376898845349743
  0.1623101154650257  0.8376898845349743  0.5000000000000000
  0.8376898845349743  0.5000000000000000  0.1623101154650257
  0.5000000000000000  0.8376898845349743  0.5000000000000000
  0.5000000000000000  0.1623101154650257  0.5000000000000000
  0.1623101154650257  0.5000000000000000  0.8376898845349743
  0.0000000000000000  0.0000000000000000  0.0000000000000000
 
  0.00000000E+00  0.00000000E+00  0.00000000E+00
  0.00000000E+00  0.00000000E+00  0.00000000E+00
  0.00000000E+00  0.00000000E+00  0.00000000E+00
  0.00000000E+00  0.00000000E+00  0.00000000E+00
  0.00000000E+00  0.00000000E+00  0.00000000E+00
  0.00000000E+00  0.00000000E+00  0.00000000E+00
  0.00000000E+00  0.00000000E+00  0.00000000E+00
  0.00000000E+00  0.00000000E+00  0.00000000E+00
  0.00000000E+00  0.00000000E+00  0.00000000E+00
  0.00000000E+00  0.00000000E+00  0.00000000E+00
  0.00000000E+00  0.00000000E+00  0.00000000E+00
  0.00000000E+00  0.00000000E+00  0.00000000E+00
  0.00000000E+00  0.00000000E+00  0.00000000E+00
