Br6Cs2Te1   [CUB,CUB,cP36] (STD_CONV doi
   1.22474500000000     
     9.2414150274741012    0.0000000000000000   -0.0000000000000000
     0.0000000000000000    9.2414150274741012   -0.0000000000000000
     0.0000000000000000    0.0000000000000000    9.2414150274741012
  24   8   4
Direct
  0.0000000000000000  0.2422285591232821 -0.0000000000000000
  0.5000000000000000  0.7422285591232821 -0.0000000000000000
  0.5000000000000000  0.2422285591232821  0.5000000000000000
  0.0000000000000000  0.7422285591232821  0.5000000000000000
  0.5000000000000000  0.2577714408767179  0.0000000000000000
 -0.0000000000000000  0.7577714408767179  0.0000000000000000
 -0.0000000000000000  0.2577714408767179  0.5000000000000000
  0.5000000000000000  0.7577714408767179  0.5000000000000000
  0.7577714408767179 -0.0000000000000000  0.0000000000000000
  0.2577714408767179  0.5000000000000000  0.0000000000000000
  0.2577714408767179 -0.0000000000000000  0.5000000000000000
  0.7577714408767179  0.5000000000000000  0.5000000000000000
  0.2422285591232821  0.0000000000000000  0.0000000000000000
  0.7422285591232821  0.5000000000000000 -0.0000000000000000
  0.7422285591232821 -0.0000000000000000  0.5000000000000000
  0.2422285591232821  0.5000000000000000  0.5000000000000000
  0.0000000000000000  0.0000000000000000  0.2422285591232821
  0.5000000000000000  0.5000000000000000  0.2422285591232821
  0.5000000000000000  0.0000000000000000  0.7422285591232821
  0.0000000000000000  0.5000000000000000  0.7422285591232821
  0.5000000000000000 -0.0000000000000000  0.2577714408767179
 -0.0000000000000000  0.5000000000000000  0.2577714408767179
 -0.0000000000000000 -0.0000000000000000  0.7577714408767179
  0.5000000000000000  0.5000000000000000  0.7577714408767179
  0.7500000000000000  0.2500000000000000  0.2500000000000000
  0.2500000000000000  0.7500000000000000  0.2500000000000000
  0.2500000000000000  0.2500000000000000  0.7500000000000000
  0.7500000000000000  0.7500000000000000  0.7500000000000000
  0.2500000000000000  0.2500000000000000  0.2500000000000000
  0.7500000000000000  0.7500000000000000  0.2500000000000000
  0.7500000000000000  0.2500000000000000  0.7500000000000000
  0.2500000000000000  0.7500000000000000  0.7500000000000000
  0.0000000000000000  0.0000000000000000  0.0000000000000000
  0.5000000000000000  0.5000000000000000  0.0000000000000000
  0.5000000000000000  0.0000000000000000  0.5000000000000000
 -0.0000000000000000  0.5000000000000000  0.5000000000000000
 
  0.00000000E+00  0.00000000E+00  0.00000000E+00
  0.00000000E+00  0.00000000E+00  0.00000000E+00
  0.00000000E+00  0.00000000E+00  0.00000000E+00
  0.00000000E+00  0.00000000E+00  0.00000000E+00
  0.00000000E+00  0.00000000E+00  0.00000000E+00
  0.00000000E+00  0.00000000E+00  0.00000000E+00
  0.00000000E+00  0.00000000E+00  0.00000000E+00
  0.00000000E+00  0.00000000E+00  0.00000000E+00
  0.00000000E+00  0.00000000E+00  0.00000000E+00
  0.00000000E+00  0.00000000E+00  0.00000000E+00
  0.00000000E+00  0.00000000E+00  0.00000000E+00
  0.00000000E+00  0.00000000E+00  0.00000000E+00
  0.00000000E+00  0.00000000E+00  0.00000000E+00
  0.00000000E+00  0.00000000E+00  0.00000000E+00
  0.00000000E+00  0.00000000E+00  0.00000000E+00
  0.00000000E+00  0.00000000E+00  0.00000000E+00
  0.00000000E+00  0.00000000E+00  0.00000000E+00
  0.00000000E+00  0.00000000E+00  0.00000000E+00
  0.00000000E+00  0.00000000E+00  0.00000000E+00
  0.00000000E+00  0.00000000E+00  0.00000000E+00
  0.00000000E+00  0.00000000E+00  0.00000000E+00
  0.00000000E+00  0.00000000E+00  0.00000000E+00
  0.00000000E+00  0.00000000E+00  0.00000000E+00
  0.00000000E+00  0.00000000E+00  0.00000000E+00
  0.00000000E+00  0.00000000E+00  0.00000000E+00
  0.00000000E+00  0.00000000E+00  0.00000000E+00
  0.00000000E+00  0.00000000E+00  0.00000000E+00
  0.00000000E+00  0.00000000E+00  0.00000000E+00
  0.00000000E+00  0.00000000E+00  0.00000000E+00
  0.00000000E+00  0.00000000E+00  0.00000000E+00
  0.00000000E+00  0.00000000E+00  0.00000000E+00
  0.00000000E+00  0.00000000E+00  0.00000000E+00
  0.00000000E+00  0.00000000E+00  0.00000000E+00
  0.00000000E+00  0.00000000E+00  0.00000000E+00
  0.00000000E+00  0.00000000E+00  0.00000000E+00
  0.00000000E+00  0.00000000E+00  0.00000000E+00
