As2O3   [FCC,FCC,cF80] (STD_PRIM doi:10.
   1.22474500000000     
    -0.0000000000000000    4.7265231610450051    4.7265231610450051
     4.7265231610450051   -0.0000000000000000    4.7265231610450051
     4.7265231610450051    4.7265231610450051    0.0000000000000000
   8  12
Direct
  0.0999648424183931  0.7001054727448277  0.0999648424183931
  0.7001054727448277  0.0999648424183931  0.0999648424183931
  0.0999648424183931  0.0999648424183931  0.7001054727448277
  0.0999648424183931  0.0999648424183931  0.0999648424183931
  0.0498945272551723  0.6500351575816068  0.6500351575816068
  0.6500351575816068  0.0498945272551723  0.6500351575816068
  0.6500351575816068  0.6500351575816068  0.0498945272551723
  0.6500351575816068  0.6500351575816068  0.6500351575816068
  0.8289985715056316  0.1710014284943683  0.8289985715056316
  0.1710014284943683  0.8289985715056316  0.1710014284943683
  0.8289985715056316  0.1710014284943683  0.1710014284943683
  0.1710014284943683  0.8289985715056316  0.8289985715056316
  0.1710014284943683  0.1710014284943683  0.8289985715056316
  0.8289985715056316  0.8289985715056316  0.1710014284943683
  0.5789985715056316  0.9210014284943684  0.9210014284943684
  0.9210014284943684  0.5789985715056316  0.5789985715056316
  0.5789985715056316  0.9210014284943684  0.5789985715056316
  0.9210014284943684  0.5789985715056316  0.9210014284943684
  0.5789985715056316  0.5789985715056316  0.9210014284943684
  0.9210014284943684  0.9210014284943684  0.5789985715056316
 
  0.00000000E+00  0.00000000E+00  0.00000000E+00
  0.00000000E+00  0.00000000E+00  0.00000000E+00
  0.00000000E+00  0.00000000E+00  0.00000000E+00
  0.00000000E+00  0.00000000E+00  0.00000000E+00
  0.00000000E+00  0.00000000E+00  0.00000000E+00
  0.00000000E+00  0.00000000E+00  0.00000000E+00
  0.00000000E+00  0.00000000E+00  0.00000000E+00
  0.00000000E+00  0.00000000E+00  0.00000000E+00
  0.00000000E+00  0.00000000E+00  0.00000000E+00
  0.00000000E+00  0.00000000E+00  0.00000000E+00
  0.00000000E+00  0.00000000E+00  0.00000000E+00
  0.00000000E+00  0.00000000E+00  0.00000000E+00
  0.00000000E+00  0.00000000E+00  0.00000000E+00
  0.00000000E+00  0.00000000E+00  0.00000000E+00
  0.00000000E+00  0.00000000E+00  0.00000000E+00
  0.00000000E+00  0.00000000E+00  0.00000000E+00
  0.00000000E+00  0.00000000E+00  0.00000000E+00
  0.00000000E+00  0.00000000E+00  0.00000000E+00
  0.00000000E+00  0.00000000E+00  0.00000000E+00
  0.00000000E+00  0.00000000E+00  0.00000000E+00
