Li2Pt1   [HEX,HEX,hP3] (STD_PRIM doi:10.
   1.00000000000000     
     2.0914973078589028   -3.6225796011051448    0.0000000000000000
     2.0913225978960184    3.6224787322610434    0.0000000000000000
     0.0000000000000000    0.0000000000000000    2.6859714225804301
   2   1
Direct
  0.6666881050333657  0.3333762100667315  0.5000000000000000
  0.3333118949666343  0.6666237899332685  0.5000000000000000
  0.0000000000000000  0.0000000000000000  0.0000000000000000
 
  0.00000000E+00  0.00000000E+00  0.00000000E+00
  0.00000000E+00  0.00000000E+00  0.00000000E+00
  0.00000000E+00  0.00000000E+00  0.00000000E+00
