Al18Cr2Mg3   [FCC,FCC,cF184] (STD_PRIM d
   1.22474500000000     
     0.0000000000000000    5.9124886330240622    5.9124886330240622
     5.9124886330240622   -0.0000000000000000    5.9124886330240622
     5.9124886330240622    5.9124886330240622    0.0000000000000000
  36   4   6
Direct
  0.1396381315390200  0.8603618684609800  0.8603618684609800
  0.8603618684609800  0.1396381315390200  0.1396381315390200
  0.1396381315390200  0.1396381315390200  0.8603618684609800
  0.8603618684609800  0.8603618684609800  0.1396381315390200
  0.1396381315390200  0.8603618684609800  0.1396381315390200
  0.8603618684609800  0.1396381315390200  0.8603618684609800
  0.8896381315390200  0.8896381315390200  0.6103618684609800
  0.6103618684609800  0.6103618684609800  0.8896381315390200
  0.8896381315390200  0.6103618684609800  0.6103618684609800
  0.6103618684609800  0.8896381315390200  0.8896381315390200
  0.6103618684609800  0.8896381315390200  0.6103618684609800
  0.8896381315390200  0.6103618684609800  0.8896381315390200
  0.4331414493889910  0.7001052319828754  0.1666480866452583
  0.1666480866452583  0.7001052319828754  0.4331414493889910
  0.7001052319828754  0.4331414493889910  0.7001052319828754
  0.7001052319828754  0.1666480866452583  0.7001052319828754
  0.4331414493889910  0.7001052319828754  0.7001052319828754
  0.1666480866452583  0.7001052319828754  0.7001052319828754
  0.7001052319828754  0.1666480866452583  0.4331414493889910
  0.7001052319828754  0.4331414493889910  0.1666480866452583
  0.4331414493889910  0.1666480866452583  0.7001052319828754
  0.1666480866452583  0.4331414493889910  0.7001052319828754
  0.7001052319828754  0.7001052319828754  0.1666480866452583
  0.7001052319828754  0.7001052319828754  0.4331414493889910
  0.5833519133547417  0.0498947680171247  0.3168585506110090
  0.3168585506110090  0.0498947680171247  0.5833519133547417
  0.0498947680171247  0.3168585506110090  0.0498947680171247
  0.0498947680171247  0.5833519133547417  0.0498947680171247
  0.0498947680171247  0.0498947680171247  0.3168585506110090
  0.0498947680171247  0.0498947680171247  0.5833519133547417
  0.3168585506110090  0.5833519133547417  0.0498947680171247
  0.5833519133547417  0.3168585506110090  0.0498947680171247
  0.0498947680171247  0.5833519133547417  0.3168585506110090
  0.0498947680171247  0.3168585506110090  0.5833519133547417
  0.5833519133547417  0.0498947680171247  0.0498947680171247
  0.3168585506110090  0.0498947680171247  0.0498947680171247
  0.3750000000000000  0.8750000000000000  0.8750000000000000
  0.8750000000000000  0.8750000000000000  0.3750000000000000
  0.8750000000000000  0.3750000000000000  0.8750000000000000
  0.8750000000000000  0.8750000000000000  0.8750000000000000
  0.5000000000000000  0.5000000000000000  0.5000000000000000
  0.2500000000000000  0.2500000000000000  0.2500000000000000
  0.8750000000000000  0.3750000000000000  0.3750000000000000
  0.3750000000000000  0.3750000000000000  0.8750000000000000
  0.3750000000000000  0.8750000000000000  0.3750000000000000
  0.3750000000000000  0.3750000000000000  0.3750000000000000
 
  0.00000000E+00  0.00000000E+00  0.00000000E+00
  0.00000000E+00  0.00000000E+00  0.00000000E+00
  0.00000000E+00  0.00000000E+00  0.00000000E+00
  0.00000000E+00  0.00000000E+00  0.00000000E+00
  0.00000000E+00  0.00000000E+00  0.00000000E+00
  0.00000000E+00  0.00000000E+00  0.00000000E+00
  0.00000000E+00  0.00000000E+00  0.00000000E+00
  0.00000000E+00  0.00000000E+00  0.00000000E+00
  0.00000000E+00  0.00000000E+00  0.00000000E+00
  0.00000000E+00  0.00000000E+00  0.00000000E+00
  0.00000000E+00  0.00000000E+00  0.00000000E+00
  0.00000000E+00  0.00000000E+00  0.00000000E+00
  0.00000000E+00  0.00000000E+00  0.00000000E+00
  0.00000000E+00  0.00000000E+00  0.00000000E+00
  0.00000000E+00  0.00000000E+00  0.00000000E+00
  0.00000000E+00  0.00000000E+00  0.00000000E+00
  0.00000000E+00  0.00000000E+00  0.00000000E+00
  0.00000000E+00  0.00000000E+00  0.00000000E+00
  0.00000000E+00  0.00000000E+00  0.00000000E+00
  0.00000000E+00  0.00000000E+00  0.00000000E+00
  0.00000000E+00  0.00000000E+00  0.00000000E+00
  0.00000000E+00  0.00000000E+00  0.00000000E+00
  0.00000000E+00  0.00000000E+00  0.00000000E+00
  0.00000000E+00  0.00000000E+00  0.00000000E+00
  0.00000000E+00  0.00000000E+00  0.00000000E+00
  0.00000000E+00  0.00000000E+00  0.00000000E+00
  0.00000000E+00  0.00000000E+00  0.00000000E+00
  0.00000000E+00  0.00000000E+00  0.00000000E+00
  0.00000000E+00  0.00000000E+00  0.00000000E+00
  0.00000000E+00  0.00000000E+00  0.00000000E+00
  0.00000000E+00  0.00000000E+00  0.00000000E+00
  0.00000000E+00  0.00000000E+00  0.00000000E+00
  0.00000000E+00  0.00000000E+00  0.00000000E+00
  0.00000000E+00  0.00000000E+00  0.00000000E+00
  0.00000000E+00  0.00000000E+00  0.00000000E+00
  0.00000000E+00  0.00000000E+00  0.00000000E+00
  0.00000000E+00  0.00000000E+00  0.00000000E+00
  0.00000000E+00  0.00000000E+00  0.00000000E+00
  0.00000000E+00  0.00000000E+00  0.00000000E+00
  0.00000000E+00  0.00000000E+00  0.00000000E+00
  0.00000000E+00  0.00000000E+00  0.00000000E+00
  0.00000000E+00  0.00000000E+00  0.00000000E+00
  0.00000000E+00  0.00000000E+00  0.00000000E+00
  0.00000000E+00  0.00000000E+00  0.00000000E+00
  0.00000000E+00  0.00000000E+00  0.00000000E+00
  0.00000000E+00  0.00000000E+00  0.00000000E+00
