In8Ir1Yb2   [TET,TET,tP11] (STD_PRIM doi
   1.00000000000000     
     4.6796586938479345    0.0000000000000000    0.0000000000000000
     0.0000000000000000    4.6796586938479345    0.0000000000000000
     0.0000000000000000   -0.0000000000000000   12.3026083825104902
   8   1   2
Direct
  0.5000000000000000  0.0000000000000000  0.0000000000000000
  0.0000000000000000  0.5000000000000000  0.0000000000000000
  0.5000000000000000 -0.0000000000000000  0.6218741204850645
  0.0000000000000000  0.5000000000000000  0.6218741204850645
  0.5000000000000000  0.0000000000000000  0.3781258795149355
 -0.0000000000000000  0.5000000000000000  0.3781258795149355
  0.5000000000000000  0.5000000000000000  0.8063487432997533
  0.5000000000000000  0.5000000000000000  0.1936512567002467
  0.0000000000000000  0.0000000000000000  0.5000000000000000
  0.0000000000000000 -0.0000000000000000  0.8073535716949696
 -0.0000000000000000  0.0000000000000000  0.1926464283050304
 
  0.00000000E+00  0.00000000E+00  0.00000000E+00
  0.00000000E+00  0.00000000E+00  0.00000000E+00
  0.00000000E+00  0.00000000E+00  0.00000000E+00
  0.00000000E+00  0.00000000E+00  0.00000000E+00
  0.00000000E+00  0.00000000E+00  0.00000000E+00
  0.00000000E+00  0.00000000E+00  0.00000000E+00
  0.00000000E+00  0.00000000E+00  0.00000000E+00
  0.00000000E+00  0.00000000E+00  0.00000000E+00
  0.00000000E+00  0.00000000E+00  0.00000000E+00
  0.00000000E+00  0.00000000E+00  0.00000000E+00
  0.00000000E+00  0.00000000E+00  0.00000000E+00
