Ge1 #206 - (Ge1_ICSD_173890) - Ge1 [Ge1]
    1.000000000000000     
    -3.5173140153024627    3.5173140153024627    3.5173140153024627
     3.5173140153024627   -3.5173140153024627    3.5173140153024627
     3.5173140153024627    3.5173140153024627   -3.5173140153024627
   8
Direct
  0.0000000000000000  0.0000000000000000  0.7969312315801713
  0.7030687684198287  0.2030687684198287  0.7030687684198287
  0.7969312315801713  0.5000000000000000  0.5000000000000000
  0.5000000000000000  0.2969312315801713  0.0000000000000000
  0.0000000000000000  0.0000000000000000  0.2030687684198287
  0.2969312315801713  0.7969312315801713  0.2969312315801713
  0.2030687684198287  0.5000000000000000  0.5000000000000000
  0.5000000000000000  0.7030687684198287  0.0000000000000000
 
  0.00000000E+00  0.00000000E+00  0.00000000E+00
  0.00000000E+00  0.00000000E+00  0.00000000E+00
  0.00000000E+00  0.00000000E+00  0.00000000E+00
  0.00000000E+00  0.00000000E+00  0.00000000E+00
  0.00000000E+00  0.00000000E+00  0.00000000E+00
  0.00000000E+00  0.00000000E+00  0.00000000E+00
  0.00000000E+00  0.00000000E+00  0.00000000E+00
  0.00000000E+00  0.00000000E+00  0.00000000E+00
