Ge1Rh1Sc1 #189 - (Ge1Rh1Sc1_ICSD_637681)
   1.00000000000000     
     3.3736743906351756   -5.8433768659263654    0.0000000000000000
     3.3736743906351756    5.8433768659263654    0.0000000000000000
     0.0000000000000000    0.0000000000000000    3.8860456047003851
   3   3   3
Direct
  0.3333303278873435  0.6666653077992298  0.0000000000000000
  0.6666653077992298  0.3333303278873435  0.0000000000000000
  0.0000074481689152  0.0000074481689152  0.5000000000000000
  0.2426775764594413  0.9999991917582992  0.0000000000000000
  0.9999991917582992  0.2426775764594413  0.0000000000000000
  0.7573220774040148  0.7573220774040148  0.0000000000000000
  0.5804429590747799  0.9999972810330580  0.5000000000000000
  0.9999972810330580  0.5804429590747799  0.5000000000000000
  0.4195578304149185  0.4195578304149185  0.5000000000000000
 
  0.00000000E+00  0.00000000E+00  0.00000000E+00
  0.00000000E+00  0.00000000E+00  0.00000000E+00
  0.00000000E+00  0.00000000E+00  0.00000000E+00
  0.00000000E+00  0.00000000E+00  0.00000000E+00
  0.00000000E+00  0.00000000E+00  0.00000000E+00
  0.00000000E+00  0.00000000E+00  0.00000000E+00
  0.00000000E+00  0.00000000E+00  0.00000000E+00
  0.00000000E+00  0.00000000E+00  0.00000000E+00
  0.00000000E+00  0.00000000E+00  0.00000000E+00
