La1S2   [TET,TET,tP6] (STD_PRIM doi:10.1
   1.00000000000000     
     4.0688466800266765    0.0000000000000000    0.0000000000000000
     0.0000000000000000    4.0688466800266765    0.0000000000000000
     0.0000000000000000    0.0000000000000000    8.4129530528791818
   2   4
Direct
  0.5000000000000000  0.0000000000000000  0.7252310510562552
  0.0000000000000000  0.5000000000000000  0.2747689489437448
  0.5000000000000000  0.5000000000000000  0.0000000000000000
  0.0000000000000000  0.0000000000000000  0.0000000000000000
  0.5000000000000000  0.0000000000000000  0.3659512840918140
  0.0000000000000000  0.5000000000000000  0.6340487159081860
 
  0.00000000E+00  0.00000000E+00  0.00000000E+00
  0.00000000E+00  0.00000000E+00  0.00000000E+00
  0.00000000E+00  0.00000000E+00  0.00000000E+00
  0.00000000E+00  0.00000000E+00  0.00000000E+00
  0.00000000E+00  0.00000000E+00  0.00000000E+00
  0.00000000E+00  0.00000000E+00  0.00000000E+00
