Ni2Sb2Tb1   [TET,TET,tP10] (STD_PRIM doi
   1.00000000000000     
     4.4267786828299496    0.0000000000000000    0.0000000000000000
     0.0000000000000000    4.4267786828299496    0.0000000000000000
     0.0000000000000000    0.0000000000000000    9.8417442703078652
   4   4   2
Direct
  0.7500000000000000  0.2500000000000000 -0.0000000000000000
  0.2500000000000000  0.7500000000000000  0.0000000000000000
  0.2500000000000000  0.2500000000000000  0.3743430499347605
  0.7500000000000000  0.7500000000000000  0.6256569500652394
  0.7500000000000000  0.2500000000000000  0.5000000000000000
  0.2500000000000000  0.7500000000000000  0.5000000000000000
  0.2500000000000000  0.2500000000000000  0.1244676084159821
  0.7500000000000000  0.7500000000000000  0.8755323915840179
  0.2500000000000000  0.2500000000000000  0.7640534528875351
  0.7500000000000000  0.7500000000000000  0.2359465471124648
 
  0.00000000E+00  0.00000000E+00  0.00000000E+00
  0.00000000E+00  0.00000000E+00  0.00000000E+00
  0.00000000E+00  0.00000000E+00  0.00000000E+00
  0.00000000E+00  0.00000000E+00  0.00000000E+00
  0.00000000E+00  0.00000000E+00  0.00000000E+00
  0.00000000E+00  0.00000000E+00  0.00000000E+00
  0.00000000E+00  0.00000000E+00  0.00000000E+00
  0.00000000E+00  0.00000000E+00  0.00000000E+00
  0.00000000E+00  0.00000000E+00  0.00000000E+00
  0.00000000E+00  0.00000000E+00  0.00000000E+00
