Mg1O3Si1   [ORCC,ORCC,oS20] (STD_PRIM do
   1.00000000000000     
     1.3569291446498977   -4.5966240193818502    0.0000000000000000
     1.3569291446498977    4.5966240193818502   -0.0000000000000000
     0.0000000000000000   -0.0000000000000000    6.7318014225608689
   2   6   2
Direct
  0.2593586597207463  0.7406413402792537  0.2500000000000000
  0.7406413402792537  0.2593586597207463  0.7500000000000000
  0.9266352587229880  0.0733647412770119  0.2500000000000000
  0.0733647412770119  0.9266352587229880  0.7500000000000000
  0.6262660295610059  0.3737339704389943  0.4442016313002413
  0.3737339704389943  0.6262660295610059  0.9442016313002413
  0.6262660295610059  0.3737339704389943  0.0557983686997587
  0.3737339704389943  0.6262660295610059  0.5557983686997587
  0.0000000000000000  0.0000000000000000  0.0000000000000000
  0.0000000000000000  0.0000000000000000  0.5000000000000000
 
  0.00000000E+00  0.00000000E+00  0.00000000E+00
  0.00000000E+00  0.00000000E+00  0.00000000E+00
  0.00000000E+00  0.00000000E+00  0.00000000E+00
  0.00000000E+00  0.00000000E+00  0.00000000E+00
  0.00000000E+00  0.00000000E+00  0.00000000E+00
  0.00000000E+00  0.00000000E+00  0.00000000E+00
  0.00000000E+00  0.00000000E+00  0.00000000E+00
  0.00000000E+00  0.00000000E+00  0.00000000E+00
  0.00000000E+00  0.00000000E+00  0.00000000E+00
  0.00000000E+00  0.00000000E+00  0.00000000E+00
