Re2Y1   [HEX,HEX,hP12] (STD_PRIM doi:10.
   1.00000000000000     
     2.7217335444598452   -4.7141807836689731    0.0000000000000000
     2.7216256265622132    4.7141184772417253    0.0000000000000000
     0.0000000000000000   -0.0000000000000000    8.8526555802598352
   8   4
Direct
  0.0000000000000000 -0.0000000000000000  0.0000000000000000
 -0.0000000000000000 -0.0000000000000000  0.5000000000000000
  0.6586604951087218  0.8293420494651065  0.2500000000000000
  0.1706815543563847  0.8293420494651065  0.2500000000000000
  0.1706717537144512  0.3413435074288952  0.2500000000000000
  0.3413395048912781  0.1706579505348935  0.7500000000000000
  0.8293184456436153  0.1706579505348935  0.7500000000000000
  0.8293282462855488  0.6586564925711048  0.7500000000000000
  0.6666694338249631  0.3333388676499260  0.0617463093166060
  0.3333305661750370  0.6666611323500740  0.5617463093166061
  0.3333305661750370  0.6666611323500740  0.9382536906833939
  0.6666694338249631  0.3333388676499260  0.4382536906833939
 
  0.00000000E+00  0.00000000E+00  0.00000000E+00
  0.00000000E+00  0.00000000E+00  0.00000000E+00
  0.00000000E+00  0.00000000E+00  0.00000000E+00
  0.00000000E+00  0.00000000E+00  0.00000000E+00
  0.00000000E+00  0.00000000E+00  0.00000000E+00
  0.00000000E+00  0.00000000E+00  0.00000000E+00
  0.00000000E+00  0.00000000E+00  0.00000000E+00
  0.00000000E+00  0.00000000E+00  0.00000000E+00
  0.00000000E+00  0.00000000E+00  0.00000000E+00
  0.00000000E+00  0.00000000E+00  0.00000000E+00
  0.00000000E+00  0.00000000E+00  0.00000000E+00
  0.00000000E+00  0.00000000E+00  0.00000000E+00
