As2Sn1Zn1   [BCT,BCT2,tI16] (STD_PRIM do
   1.00000000000000     
    -2.9733951893282242    2.9733951893282242    5.9792904252937422
     2.9733951893282242   -2.9733951893282242    5.9792904252937422
     2.9733951893282242    2.9733951893282242   -5.9792904252937422
   4   2   2
Direct
  0.6537625739870294  0.6250000000000000  0.5287625739870294
  0.0962374260129706  0.1250000000000000  0.4712374260129706
  0.8750000000000000  0.3462374260129706  0.9712374260129706
  0.3750000000000000  0.9037625739870294  0.0287625739870294
  0.5000000000000000  0.5000000000000000  0.0000000000000000
  0.2500000000000000  0.7500000000000000  0.5000000000000000
  0.0000000000000000  0.0000000000000000  0.0000000000000000
  0.7500000000000000  0.2500000000000000  0.5000000000000000
 
  0.00000000E+00  0.00000000E+00  0.00000000E+00
  0.00000000E+00  0.00000000E+00  0.00000000E+00
  0.00000000E+00  0.00000000E+00  0.00000000E+00
  0.00000000E+00  0.00000000E+00  0.00000000E+00
  0.00000000E+00  0.00000000E+00  0.00000000E+00
  0.00000000E+00  0.00000000E+00  0.00000000E+00
  0.00000000E+00  0.00000000E+00  0.00000000E+00
  0.00000000E+00  0.00000000E+00  0.00000000E+00
