C2Cr1Sc1   [HEX,HEX,hP8] (STD_PRIM doi:1
   1.00000000000000     
     1.7219186987336366   -2.9824506727095477    0.0000000000000000
     1.7219616579244548    2.9824754752099318    0.0000000000000000
     0.0000000000000000   -0.0000000000000000    8.9720113370632681
   4   2   2
Direct
  0.6666772240947150  0.3333544481894298  0.6650158780172927
  0.3333227759052851  0.6666455518105703  0.1650158780172927
  0.3333227759052851  0.6666455518105703  0.3349841219827073
  0.6666772240947150  0.3333544481894298  0.8349841219827073
  0.6666524033035995  0.3333048066071990  0.2500000000000000
  0.3333475966964005  0.6666951933928009  0.7500000000000000
  0.0000000000000000  0.0000000000000000  0.0000000000000000
  0.0000000000000000  0.0000000000000000  0.5000000000000000
 
  0.00000000E+00  0.00000000E+00  0.00000000E+00
  0.00000000E+00  0.00000000E+00  0.00000000E+00
  0.00000000E+00  0.00000000E+00  0.00000000E+00
  0.00000000E+00  0.00000000E+00  0.00000000E+00
  0.00000000E+00  0.00000000E+00  0.00000000E+00
  0.00000000E+00  0.00000000E+00  0.00000000E+00
  0.00000000E+00  0.00000000E+00  0.00000000E+00
  0.00000000E+00  0.00000000E+00  0.00000000E+00
