As2O6Sr1 #193 - (As2O6Sr1_ICSD_420297) -
    1.000000000000000     
     2.4746229482196975   -4.2861795574017787    0.0000000000000000
     2.4746229482196975    4.2861795574017787    0.0000000000000000
     0.0000000000000000    0.0000000000000000   11.0149823592295935
   4  12   2
Direct
  0.3333320579110034  0.6666679420889966  0.5000000000000000
  0.6666679420889966  0.3333320579110034  0.0000000000000000
  0.6666679420889966  0.3333320579110034  0.5000000000000000
  0.3333320579110034  0.6666679420889966  0.0000000000000000
 -0.0000000364284287  0.3834854026056573  0.4038222228888795
  0.6165147421801022  0.6165147421801022  0.4038219500824203
  0.3834854026056573 -0.0000000364284287  0.4038222228888795
  0.0000000364284287  0.6165145973943427  0.9038222228888724
  0.3834852578198978  0.3834852578198978  0.9038219500824204
  0.6165145973943427  0.0000000364284287  0.9038222228888724
  0.3834854026056573 -0.0000000364284287  0.0961777771111276
  0.6165147421801022  0.6165147421801022  0.0961780499175797
 -0.0000000364284287  0.3834854026056573  0.0961777771111276
  0.6165145973943427  0.0000000364284287  0.5961777771111276
  0.3834852578198978  0.3834852578198978  0.5961780499175796
  0.0000000364284287  0.6165145973943427  0.5961777771111276
 -0.0000000285181629 -0.0000000285181629  0.2500000000000000
  0.0000000285181630  0.0000000285181630  0.7500000000000000
 
  0.00000000E+00  0.00000000E+00  0.00000000E+00
  0.00000000E+00  0.00000000E+00  0.00000000E+00
  0.00000000E+00  0.00000000E+00  0.00000000E+00
  0.00000000E+00  0.00000000E+00  0.00000000E+00
  0.00000000E+00  0.00000000E+00  0.00000000E+00
  0.00000000E+00  0.00000000E+00  0.00000000E+00
  0.00000000E+00  0.00000000E+00  0.00000000E+00
  0.00000000E+00  0.00000000E+00  0.00000000E+00
  0.00000000E+00  0.00000000E+00  0.00000000E+00
  0.00000000E+00  0.00000000E+00  0.00000000E+00
  0.00000000E+00  0.00000000E+00  0.00000000E+00
  0.00000000E+00  0.00000000E+00  0.00000000E+00
  0.00000000E+00  0.00000000E+00  0.00000000E+00
  0.00000000E+00  0.00000000E+00  0.00000000E+00
  0.00000000E+00  0.00000000E+00  0.00000000E+00
  0.00000000E+00  0.00000000E+00  0.00000000E+00
  0.00000000E+00  0.00000000E+00  0.00000000E+00
  0.00000000E+00  0.00000000E+00  0.00000000E+00
