Ni4Sc1Sn1   [FCC,FCC,cF24] (STD_PRIM doi
   1.22474500000000     
    -0.0000000000000000    2.8388585333687280    2.8388585333687280
     2.8388585333687280    0.0000000000000000    2.8388585333687280
     2.8388585333687280    2.8388585333687280   -0.0000000000000000
   4   1   1
Direct
  0.6246846400599692  0.6246846400599692  0.1259460798200784
  0.6246846400599692  0.1259460798200784  0.6246846400599692
  0.6246846400599692  0.6246846400599692  0.6246846400599692
  0.1259460798200784  0.6246846400599692  0.6246846400599692
  0.0000000000000000  0.0000000000000000  0.0000000000000000
  0.2500000000000000  0.2500000000000000  0.2500000000000000
 
  0.00000000E+00  0.00000000E+00  0.00000000E+00
  0.00000000E+00  0.00000000E+00  0.00000000E+00
  0.00000000E+00  0.00000000E+00  0.00000000E+00
  0.00000000E+00  0.00000000E+00  0.00000000E+00
  0.00000000E+00  0.00000000E+00  0.00000000E+00
  0.00000000E+00  0.00000000E+00  0.00000000E+00
