Co1Ge1Nb1   [ORC,ORC,oP12] (STD_PRIM doi
   1.00000000000000     
     3.8086403099981063    0.0000000000000000    0.0000000000000000
    -0.0000000000000000    6.5122103720426319    0.0000000000000000
     0.0000000000000000    0.0000000000000000    7.4109268999660252
   4   4   4
Direct
  0.2500000000000000  0.8489273876616555  0.4348191644184081
  0.7500000000000000  0.6510726123383445  0.9348191644184081
  0.7500000000000000  0.1510726123383444  0.5651808355815919
  0.2500000000000000  0.3489273876616555  0.0651808355815919
  0.2500000000000000  0.2220951119929190  0.3798824942712268
  0.7500000000000000  0.2779048880070810  0.8798824942712269
  0.7500000000000000  0.7779048880070809  0.6201175057287731
  0.2500000000000000  0.7220951119929191  0.1201175057287732
  0.2500000000000000  0.9902533504833512  0.8300862560246680
  0.7500000000000000  0.5097466495166488  0.3300862560246681
  0.7500000000000000  0.0097466495166488  0.1699137439753319
  0.2500000000000000  0.4902533504833512  0.6699137439753320
 
  0.00000000E+00  0.00000000E+00  0.00000000E+00
  0.00000000E+00  0.00000000E+00  0.00000000E+00
  0.00000000E+00  0.00000000E+00  0.00000000E+00
  0.00000000E+00  0.00000000E+00  0.00000000E+00
  0.00000000E+00  0.00000000E+00  0.00000000E+00
  0.00000000E+00  0.00000000E+00  0.00000000E+00
  0.00000000E+00  0.00000000E+00  0.00000000E+00
  0.00000000E+00  0.00000000E+00  0.00000000E+00
  0.00000000E+00  0.00000000E+00  0.00000000E+00
  0.00000000E+00  0.00000000E+00  0.00000000E+00
  0.00000000E+00  0.00000000E+00  0.00000000E+00
  0.00000000E+00  0.00000000E+00  0.00000000E+00
