Fe1Se2   [ORC,ORC,oP6] (STD_PRIM doi:10.
   1.00000000000000     
     3.6888586834468060    0.0000000000000000    0.0000000000000000
     0.0000000000000000    4.8471939010637808    0.0000000000000000
     0.0000000000000000    0.0000000000000000    5.9036987428552719
   2   4
Direct
  0.0000000000000000  0.0000000000000000  0.0000000000000000
  0.5000000000000000  0.5000000000000000  0.5000000000000000
  0.0000000000000000  0.2037123958708835  0.6241571791435286
  0.0000000000000000  0.7962876041291166  0.3758428208564714
  0.5000000000000000  0.2962876041291165  0.1241571791435287
  0.5000000000000000  0.7037123958708834  0.8758428208564714
 
  0.00000000E+00  0.00000000E+00  0.00000000E+00
  0.00000000E+00  0.00000000E+00  0.00000000E+00
  0.00000000E+00  0.00000000E+00  0.00000000E+00
  0.00000000E+00  0.00000000E+00  0.00000000E+00
  0.00000000E+00  0.00000000E+00  0.00000000E+00
  0.00000000E+00  0.00000000E+00  0.00000000E+00
