O1Zn1   [HEX,HEX,hP4] (STD_PRIM doi:10.1
   1.00000000000000     
     1.5990880334547046   -2.7695023938479464    0.0000000000000000
     1.5990880334547046    2.7695023938479464    0.0000000000000000
     0.0000000000000000    0.0000000000000000    5.1301955931663041
   2   2
Direct
  0.3333198563782936  0.6666801436217064  0.3816684752057255
  0.6666801436217064  0.3333198563782936  0.8816684752057256
  0.3333202692582278  0.6666797307417722  0.0003315247942724
  0.6666797307417722  0.3333202692582278  0.5003315247942723
 
  0.00000000E+00  0.00000000E+00  0.00000000E+00
  0.00000000E+00  0.00000000E+00  0.00000000E+00
  0.00000000E+00  0.00000000E+00  0.00000000E+00
  0.00000000E+00  0.00000000E+00  0.00000000E+00
