Ca3Rh4Sn13   [CUB,CUB,cP40] (STD_PRIM do
   1.00000000000000     
     9.9072758614568617    0.0000000000000000   -0.0000000000000000
     0.0000000000000000    9.9072758614568617    0.0000000000000000
    -0.0000000000000000   -0.0000000000000000    9.9072758614568617
   6   8  26
Direct
  0.2500000000000000  0.5000000000000000  0.0000000000000000
  0.7500000000000000  0.5000000000000000 -0.0000000000000000
  0.0000000000000000  0.2500000000000000  0.5000000000000000
  0.0000000000000000  0.7500000000000000  0.5000000000000000
  0.5000000000000000 -0.0000000000000000  0.2500000000000000
  0.5000000000000000 -0.0000000000000000  0.7500000000000000
  0.2500000000000000  0.2500000000000000  0.2500000000000000
  0.7500000000000000  0.7500000000000000  0.2500000000000000
  0.7500000000000000  0.2500000000000000  0.7500000000000000
  0.2500000000000000  0.7500000000000000  0.7500000000000000
  0.7500000000000000  0.7500000000000000  0.7500000000000000
  0.2500000000000000  0.2500000000000000  0.7500000000000000
  0.2500000000000000  0.7500000000000000  0.2500000000000000
  0.7500000000000000  0.2500000000000000  0.2500000000000000
  0.0000000000000000  0.0000000000000000  0.0000000000000000
  0.5000000000000000  0.5000000000000000  0.5000000000000000
 -0.0000000000000000  0.3043752186061575  0.1545768452400276
  0.0000000000000000  0.6956247813938425  0.1545768452400276
 -0.0000000000000000  0.3043752186061575  0.8454231547599724
  0.0000000000000000  0.6956247813938425  0.8454231547599724
  0.1545768452400276  0.0000000000000000  0.3043752186061575
  0.1545768452400276 -0.0000000000000000  0.6956247813938425
  0.8454231547599724  0.0000000000000000  0.3043752186061575
  0.8454231547599724 -0.0000000000000000  0.6956247813938425
  0.3043752186061575  0.1545768452400276 -0.0000000000000000
  0.6956247813938425  0.1545768452400276 -0.0000000000000000
  0.3043752186061575  0.8454231547599724  0.0000000000000000
  0.6956247813938425  0.8454231547599724  0.0000000000000000
  0.8043752186061575  0.5000000000000000  0.3454231547599724
  0.1956247813938425  0.5000000000000000  0.3454231547599724
  0.8043752186061575  0.5000000000000000  0.6545768452400276
  0.1956247813938425  0.5000000000000000  0.6545768452400276
  0.5000000000000000  0.6545768452400276  0.1956247813938425
  0.5000000000000000  0.6545768452400276  0.8043752186061575
  0.5000000000000000  0.3454231547599724  0.1956247813938425
  0.5000000000000000  0.3454231547599724  0.8043752186061575
  0.6545768452400276  0.8043752186061575  0.5000000000000000
  0.6545768452400276  0.1956247813938425  0.5000000000000000
  0.3454231547599724  0.8043752186061575  0.5000000000000000
  0.3454231547599724  0.1956247813938425  0.5000000000000000
 
  0.00000000E+00  0.00000000E+00  0.00000000E+00
  0.00000000E+00  0.00000000E+00  0.00000000E+00
  0.00000000E+00  0.00000000E+00  0.00000000E+00
  0.00000000E+00  0.00000000E+00  0.00000000E+00
  0.00000000E+00  0.00000000E+00  0.00000000E+00
  0.00000000E+00  0.00000000E+00  0.00000000E+00
  0.00000000E+00  0.00000000E+00  0.00000000E+00
  0.00000000E+00  0.00000000E+00  0.00000000E+00
  0.00000000E+00  0.00000000E+00  0.00000000E+00
  0.00000000E+00  0.00000000E+00  0.00000000E+00
  0.00000000E+00  0.00000000E+00  0.00000000E+00
  0.00000000E+00  0.00000000E+00  0.00000000E+00
  0.00000000E+00  0.00000000E+00  0.00000000E+00
  0.00000000E+00  0.00000000E+00  0.00000000E+00
  0.00000000E+00  0.00000000E+00  0.00000000E+00
  0.00000000E+00  0.00000000E+00  0.00000000E+00
  0.00000000E+00  0.00000000E+00  0.00000000E+00
  0.00000000E+00  0.00000000E+00  0.00000000E+00
  0.00000000E+00  0.00000000E+00  0.00000000E+00
  0.00000000E+00  0.00000000E+00  0.00000000E+00
  0.00000000E+00  0.00000000E+00  0.00000000E+00
  0.00000000E+00  0.00000000E+00  0.00000000E+00
  0.00000000E+00  0.00000000E+00  0.00000000E+00
  0.00000000E+00  0.00000000E+00  0.00000000E+00
  0.00000000E+00  0.00000000E+00  0.00000000E+00
  0.00000000E+00  0.00000000E+00  0.00000000E+00
  0.00000000E+00  0.00000000E+00  0.00000000E+00
  0.00000000E+00  0.00000000E+00  0.00000000E+00
  0.00000000E+00  0.00000000E+00  0.00000000E+00
  0.00000000E+00  0.00000000E+00  0.00000000E+00
  0.00000000E+00  0.00000000E+00  0.00000000E+00
  0.00000000E+00  0.00000000E+00  0.00000000E+00
  0.00000000E+00  0.00000000E+00  0.00000000E+00
  0.00000000E+00  0.00000000E+00  0.00000000E+00
  0.00000000E+00  0.00000000E+00  0.00000000E+00
  0.00000000E+00  0.00000000E+00  0.00000000E+00
  0.00000000E+00  0.00000000E+00  0.00000000E+00
  0.00000000E+00  0.00000000E+00  0.00000000E+00
  0.00000000E+00  0.00000000E+00  0.00000000E+00
  0.00000000E+00  0.00000000E+00  0.00000000E+00
