Hf1Pd3   [HEX,HEX,hP16] (STD_PRIM doi:10
   1.00000000000000     
     2.8158081590802668   -4.8771674899409518   -0.0000000000000000
     2.8158081590802668    4.8771674899409518    0.0000000000000000
     0.0000000000000000    0.0000000000000000    9.2766765523505583
   4  12
Direct
 -0.0000000000000000  0.0000000000000000  0.0000000000000000
 -0.0000000000000000  0.0000000000000000  0.5000000000000000
  0.3333159888329795  0.6666840111670205  0.2500000000000000
  0.6666840111670205  0.3333159888329795  0.7500000000000000
  0.5000000000000000 -0.0000000000000000  0.0000000000000000
 -0.0000000000000000  0.5000000000000000  0.0000000000000000
  0.5000000000000000  0.5000000000000000  0.0000000000000000
  0.5000000000000000  0.0000000000000000  0.5000000000000000
  0.0000000000000000  0.5000000000000000  0.5000000000000000
  0.5000000000000000  0.5000000000000000  0.5000000000000000
  0.8318315901625334  0.6636788663836798  0.2500000000000000
  0.3363211336163202  0.1681684098374666  0.2500000000000000
  0.8318386773550170  0.1681613226449829  0.2500000000000000
  0.1681684098374666  0.3363211336163202  0.7500000000000000
  0.6636788663836798  0.8318315901625334  0.7500000000000000
  0.1681613226449829  0.8318386773550170  0.7500000000000000
 
  0.00000000E+00  0.00000000E+00  0.00000000E+00
  0.00000000E+00  0.00000000E+00  0.00000000E+00
  0.00000000E+00  0.00000000E+00  0.00000000E+00
  0.00000000E+00  0.00000000E+00  0.00000000E+00
  0.00000000E+00  0.00000000E+00  0.00000000E+00
  0.00000000E+00  0.00000000E+00  0.00000000E+00
  0.00000000E+00  0.00000000E+00  0.00000000E+00
  0.00000000E+00  0.00000000E+00  0.00000000E+00
  0.00000000E+00  0.00000000E+00  0.00000000E+00
  0.00000000E+00  0.00000000E+00  0.00000000E+00
  0.00000000E+00  0.00000000E+00  0.00000000E+00
  0.00000000E+00  0.00000000E+00  0.00000000E+00
  0.00000000E+00  0.00000000E+00  0.00000000E+00
  0.00000000E+00  0.00000000E+00  0.00000000E+00
  0.00000000E+00  0.00000000E+00  0.00000000E+00
  0.00000000E+00  0.00000000E+00  0.00000000E+00
