Rh2Th1   [HEX,HEX,hP6] (STD_PRIM doi:10.
   1.00000000000000     
     2.4376943834508293   -4.2222105254621285   -0.0000000000000000
     2.4372851575869499    4.2219742587994595    0.0000000000000000
     0.0000000000000000    0.0000000000000000    5.9928294060453116
   4   2
Direct
  0.0000000000000000  0.0000000000000000  0.0000000000000000
  0.0000000000000000  0.0000000000000000  0.5000000000000000
  0.6666783029381794  0.3333566058763589  0.7500000000000000
  0.3333216970618206  0.6666433941236412  0.2500000000000000
  0.6666726673286872  0.3333453346573672  0.2500000000000000
  0.3333273326713129  0.6666546653426328  0.7500000000000000
 
  0.00000000E+00  0.00000000E+00  0.00000000E+00
  0.00000000E+00  0.00000000E+00  0.00000000E+00
  0.00000000E+00  0.00000000E+00  0.00000000E+00
  0.00000000E+00  0.00000000E+00  0.00000000E+00
  0.00000000E+00  0.00000000E+00  0.00000000E+00
  0.00000000E+00  0.00000000E+00  0.00000000E+00
