Al3Dy1   [HEX,HEX,hP16] (STD_PRIM doi:10
   1.00000000000000     
     3.0592839851505951   -5.2988352970626202   -0.0000000000000000
     3.0592476114261236    5.2988142966830045   -0.0000000000000000
     0.0000000000000000    0.0000000000000000    9.5494692678103572
  12   4
Direct
  0.0000000000000000  0.5000000000000000  0.0000000000000000
  0.5000000000000000  0.5000000000000000  0.0000000000000000
  0.5000000000000000  0.0000000000000000  0.0000000000000000
  0.0000000000000000  0.5000000000000000  0.5000000000000000
  0.5000000000000000  0.5000000000000000  0.5000000000000000
  0.5000000000000000  0.0000000000000000  0.5000000000000000
  0.6341215261871038  0.8170636636584754  0.2500000000000000
  0.1829421374713645  0.8170636636584754  0.2500000000000000
  0.1829424140074445  0.3658848280148819  0.2500000000000000
  0.3658784738128961  0.1829363363415246  0.7500000000000000
  0.8170578625286355  0.1829363363415246  0.7500000000000000
  0.8170575859925554  0.6341151719851181  0.7500000000000000
  0.0000000000000000  0.0000000000000000 -0.0000000000000000
 -0.0000000000000000 -0.0000000000000000  0.5000000000000000
  0.6666686911852612  0.3333373823705224  0.2500000000000000
  0.3333313088147388  0.6666626176294775  0.7500000000000000
 
  0.00000000E+00  0.00000000E+00  0.00000000E+00
  0.00000000E+00  0.00000000E+00  0.00000000E+00
  0.00000000E+00  0.00000000E+00  0.00000000E+00
  0.00000000E+00  0.00000000E+00  0.00000000E+00
  0.00000000E+00  0.00000000E+00  0.00000000E+00
  0.00000000E+00  0.00000000E+00  0.00000000E+00
  0.00000000E+00  0.00000000E+00  0.00000000E+00
  0.00000000E+00  0.00000000E+00  0.00000000E+00
  0.00000000E+00  0.00000000E+00  0.00000000E+00
  0.00000000E+00  0.00000000E+00  0.00000000E+00
  0.00000000E+00  0.00000000E+00  0.00000000E+00
  0.00000000E+00  0.00000000E+00  0.00000000E+00
  0.00000000E+00  0.00000000E+00  0.00000000E+00
  0.00000000E+00  0.00000000E+00  0.00000000E+00
  0.00000000E+00  0.00000000E+00  0.00000000E+00
  0.00000000E+00  0.00000000E+00  0.00000000E+00
