Ba1Os2P2 #139 - (Ba1Os2P2_ICSD_602106) -
   1.00000000000000     
    -2.0425922174498576    2.0425922174498576    6.1042702631667067
     2.0425922174498576   -2.0425922174498576    6.1042702631667067
     2.0425922174498576    2.0425922174498576   -6.1042702631667067
   1   2   2
Direct
  0.0000000000000000  0.0000000000000000  0.0000000000000000
  0.2500000000000000  0.7500000000000000  0.5000000000000000
  0.7500000000000000  0.2500000000000000  0.5000000000000000
  0.6564880049979326  0.6564880049979326  0.0000000000000000
  0.3435119950020674  0.3435119950020674  0.0000000000000000
 
  0.00000000E+00  0.00000000E+00  0.00000000E+00
  0.00000000E+00  0.00000000E+00  0.00000000E+00
  0.00000000E+00  0.00000000E+00  0.00000000E+00
  0.00000000E+00  0.00000000E+00  0.00000000E+00
  0.00000000E+00  0.00000000E+00  0.00000000E+00
