P1Sn1   [BCT,BCT2,tI4] (STD_PRIM doi:10.
   1.00000000000000     
    -1.9579933929091908    1.9579933929091908    3.0901215311929486
     1.9579933929091908   -1.9579933929091908    3.0901215311929486
     1.9579933929091908    1.9579933929091908   -3.0901215311929486
   1   1
Direct
  0.4292330263333962  0.4292330263333962 -0.0000000000000000
  0.9987669736666011  0.9987669736666011  0.0000000000000000
 
  0.00000000E+00  0.00000000E+00  0.00000000E+00
  0.00000000E+00  0.00000000E+00  0.00000000E+00
