O1Rb2   [FCC,FCC,cF12] (STD_PRIM doi:10.
   1.24482600000000     
     0.0000000000000000    2.7624552678428356    2.7624552678428356
     2.7624552678428356   -0.0000000000000000    2.7624552678428356
     2.7624552678428356    2.7624552678428356   -0.0000000000000000
   1   2
Direct
  0.0000000000000000  0.0000000000000000  0.0000000000000000
  0.2500000000000000  0.2500000000000000  0.2500000000000000
  0.7500000000000000  0.7500000000000000  0.7500000000000000
 
  0.00000000E+00  0.00000000E+00  0.00000000E+00
  0.00000000E+00  0.00000000E+00  0.00000000E+00
  0.00000000E+00  0.00000000E+00  0.00000000E+00
