B1Ho1Rh3   [CUB,CUB,cP5] (STD_PRIM doi:1
   1.00000000000000     
     4.1857234520219873    0.0000000000000000    0.0000000000000000
     0.0000000000000000    4.1857234520219873    0.0000000000000000
    -0.0000000000000000   -0.0000000000000000    4.1857234520219873
   1   1   3
Direct
  0.5000000000000000  0.5000000000000000  0.5000000000000000
  0.0000000000000000  0.0000000000000000  0.0000000000000000
  0.0000000000000000  0.5000000000000000  0.5000000000000000
  0.5000000000000000  0.0000000000000000  0.5000000000000000
  0.5000000000000000  0.5000000000000000  0.0000000000000000
 
  0.00000000E+00  0.00000000E+00  0.00000000E+00
  0.00000000E+00  0.00000000E+00  0.00000000E+00
  0.00000000E+00  0.00000000E+00  0.00000000E+00
  0.00000000E+00  0.00000000E+00  0.00000000E+00
  0.00000000E+00  0.00000000E+00  0.00000000E+00
