Ga4Nb5                                  
   1.00000000000000     
     4.0059047313606486   -6.9385686613677127    0.0000000000000000
     4.0059047313606486    6.9385686613677127    0.0000000000000000
    -0.0000000000000000    0.0000000000000000    5.4899532512856100
   8  10
Direct
  0.0000000000000000 -0.0000000000000000  0.0000000000000000
 -0.0000000000000000  0.0000000000000000  0.5000000000000000
  0.6156033295222397  0.9999896851708454  0.2500000000000000
  0.9999896851708454  0.6156033295222397  0.2500000000000000
  0.3844080104210165  0.3844080104210165  0.2500000000000000
  0.3843966704777603  0.0000103148291546  0.7500000000000000
  0.0000103148291546  0.3843966704777603  0.7500000000000000
  0.6155919895789835  0.6155919895789835  0.7500000000000000
  0.3333239736983821  0.6666760263016179  0.0000000000000000
  0.6666760263016179  0.3333239736983821  0.5000000000000000
  0.6666760263016179  0.3333239736983821  0.0000000000000000
  0.3333239736983821  0.6666760263016179  0.5000000000000000
  0.2799332856314717  0.0000007281186702  0.2500000000000000
  0.0000007281186702  0.2799332856314717  0.2500000000000000
  0.7200644547036766  0.7200644547036766  0.2500000000000000
  0.7200667143685282 -0.0000007281186702  0.7500000000000000
 -0.0000007281186702  0.7200667143685282  0.7500000000000000
  0.2799355452963234  0.2799355452963234  0.7500000000000000
 
  0.00000000E+00  0.00000000E+00  0.00000000E+00
  0.00000000E+00  0.00000000E+00  0.00000000E+00
  0.00000000E+00  0.00000000E+00  0.00000000E+00
  0.00000000E+00  0.00000000E+00  0.00000000E+00
  0.00000000E+00  0.00000000E+00  0.00000000E+00
  0.00000000E+00  0.00000000E+00  0.00000000E+00
  0.00000000E+00  0.00000000E+00  0.00000000E+00
  0.00000000E+00  0.00000000E+00  0.00000000E+00
  0.00000000E+00  0.00000000E+00  0.00000000E+00
  0.00000000E+00  0.00000000E+00  0.00000000E+00
  0.00000000E+00  0.00000000E+00  0.00000000E+00
  0.00000000E+00  0.00000000E+00  0.00000000E+00
  0.00000000E+00  0.00000000E+00  0.00000000E+00
  0.00000000E+00  0.00000000E+00  0.00000000E+00
  0.00000000E+00  0.00000000E+00  0.00000000E+00
  0.00000000E+00  0.00000000E+00  0.00000000E+00
  0.00000000E+00  0.00000000E+00  0.00000000E+00
  0.00000000E+00  0.00000000E+00  0.00000000E+00
