Ag1In5Se8   [TET,TET,tP14] (STD_PRIM doi
   1.00000000000000     
     5.8661244102412402    0.0000000000000000    0.0000000000000000
     0.0000000000000000    5.8661244102412402    0.0000000000000000
     0.0000000000000000   -0.0000000000000000   12.1066564461520159
   1   5   8
Direct
 -0.0000000000000000 -0.0000000000000000  0.5000000000000000
  0.0000000000000000  0.5000000000000000  0.2530645289626012
  0.5000000000000000 -0.0000000000000000  0.7469354710373988
 -0.0000000000000000  0.5000000000000000  0.7469354710373988
  0.5000000000000000  0.0000000000000000  0.2530645289626012
  0.5000000000000000  0.5000000000000000  0.0000000000000000
  0.2274047114140472  0.2274047114140472  0.1121672072156088
  0.7725952885859528  0.7725952885859528  0.1121672072156088
  0.2274047114140472  0.7725952885859528  0.8878327927843912
  0.7725952885859528  0.2274047114140472  0.8878327927843912
  0.7262069206722581  0.7262069206722581  0.6209489702298161
  0.2737930793277419  0.2737930793277419  0.6209489702298161
  0.7262069206722581  0.2737930793277419  0.3790510297701836
  0.2737930793277419  0.7262069206722581  0.3790510297701836
 
  0.00000000E+00  0.00000000E+00  0.00000000E+00
  0.00000000E+00  0.00000000E+00  0.00000000E+00
  0.00000000E+00  0.00000000E+00  0.00000000E+00
  0.00000000E+00  0.00000000E+00  0.00000000E+00
  0.00000000E+00  0.00000000E+00  0.00000000E+00
  0.00000000E+00  0.00000000E+00  0.00000000E+00
  0.00000000E+00  0.00000000E+00  0.00000000E+00
  0.00000000E+00  0.00000000E+00  0.00000000E+00
  0.00000000E+00  0.00000000E+00  0.00000000E+00
  0.00000000E+00  0.00000000E+00  0.00000000E+00
  0.00000000E+00  0.00000000E+00  0.00000000E+00
  0.00000000E+00  0.00000000E+00  0.00000000E+00
  0.00000000E+00  0.00000000E+00  0.00000000E+00
  0.00000000E+00  0.00000000E+00  0.00000000E+00
