Ho1Os2Si2   [BCT,BCT2,tI10] (STD_PRIM do
   1.00000000000000     
    -2.0948508758073694    2.0948508758073694    4.7674450987661068
     2.0948508758073694   -2.0948508758073694    4.7674450987661068
     2.0948508758073694    2.0948508758073694   -4.7674450987661068
   1   2   2
Direct
  0.0000000000000000 -0.0000000000000000 -0.0000000000000000
  0.7500000000000000  0.2500000000000000  0.5000000000000000
  0.2500000000000000  0.7500000000000000  0.5000000000000000
  0.6299021054347989  0.6299021054347989 -0.0000000000000000
  0.3700978945652013  0.3700978945652013 -0.0000000000000000
 
  0.00000000E+00  0.00000000E+00  0.00000000E+00
  0.00000000E+00  0.00000000E+00  0.00000000E+00
  0.00000000E+00  0.00000000E+00  0.00000000E+00
  0.00000000E+00  0.00000000E+00  0.00000000E+00
  0.00000000E+00  0.00000000E+00  0.00000000E+00
