La1Si2   [BCT,BCT2,tI12] (STD_PRIM doi:1
   1.00000000000000     
    -2.1720395083932562    2.1720395083932562    7.0169628974854072
     2.1720395083932562   -2.1720395083932562    7.0169628974854072
     2.1720395083932562    2.1720395083932562   -7.0169628974854072
   2   4
Direct
  0.0000000000000000 -0.0000000000000000  0.0000000000000000
  0.2500000000000000  0.7500000000000000  0.5000000000000000
  0.5846353688000312  0.5846353688000312 -0.0000000000000000
  0.8346353688000312  0.3346353688000312  0.5000000000000000
  0.6653646311999688  0.1653646311999688  0.5000000000000000
  0.4153646311999688  0.4153646311999688  0.0000000000000000
 
  0.00000000E+00  0.00000000E+00  0.00000000E+00
  0.00000000E+00  0.00000000E+00  0.00000000E+00
  0.00000000E+00  0.00000000E+00  0.00000000E+00
  0.00000000E+00  0.00000000E+00  0.00000000E+00
  0.00000000E+00  0.00000000E+00  0.00000000E+00
  0.00000000E+00  0.00000000E+00  0.00000000E+00
