Au1K1Te1   [HEX,HEX,hP6] (STD_PRIM doi:1
   1.00000000000000     
     2.3913192706297242   -4.1415524726883426    0.0000000000000000
     2.3913192706297242    4.1415524726883426   -0.0000000000000000
     0.0000000000000000    0.0000000000000000    9.9101095459691013
   2   2   2
Direct
  0.3333221919326376  0.6666778080673624  0.2500000000000000
  0.6666778080673624  0.3333221919326376  0.7500000000000000
 -0.0000000000000000 -0.0000000000000000  0.0000000000000000
  0.0000000000000000  0.0000000000000000  0.5000000000000000
  0.3333246950500600  0.6666753049499400  0.7500000000000000
  0.6666753049499400  0.3333246950500600  0.2500000000000000
 
  0.00000000E+00  0.00000000E+00  0.00000000E+00
  0.00000000E+00  0.00000000E+00  0.00000000E+00
  0.00000000E+00  0.00000000E+00  0.00000000E+00
  0.00000000E+00  0.00000000E+00  0.00000000E+00
  0.00000000E+00  0.00000000E+00  0.00000000E+00
  0.00000000E+00  0.00000000E+00  0.00000000E+00
