Na2S1   [ORC,ORC,oP12] (STD_PRIM doi:10.
   1.00000000000000     
     4.3156167127102396    0.0000000000000000    0.0000000000000000
     0.0000000000000000    7.1102339408283424    0.0000000000000000
     0.0000000000000000    0.0000000000000000    8.3649725579038883
   8   4
Direct
  0.2500000000000000  0.0229291940079003  0.8300330652605876
  0.7500000000000000  0.4770708059920997  0.3300330652605805
  0.7500000000000000  0.9770708059920997  0.1699669347394196
  0.2500000000000000  0.5229291940079003  0.6699669347394124
  0.2500000000000000  0.1467530313059107  0.4279017285311719
  0.7500000000000000  0.3532469686940893  0.9279017285311719
  0.7500000000000000  0.8532469686940892  0.5720982714688281
  0.2500000000000000  0.6467530313059108  0.0720982714688281
  0.2500000000000000  0.2531622654320552  0.1130225657884199
  0.7500000000000000  0.2468377345679448  0.6130225657884198
  0.7500000000000000  0.7468377345679449  0.8869774342115802
  0.2500000000000000  0.7531622654320551  0.3869774342115801
 
  0.00000000E+00  0.00000000E+00  0.00000000E+00
  0.00000000E+00  0.00000000E+00  0.00000000E+00
  0.00000000E+00  0.00000000E+00  0.00000000E+00
  0.00000000E+00  0.00000000E+00  0.00000000E+00
  0.00000000E+00  0.00000000E+00  0.00000000E+00
  0.00000000E+00  0.00000000E+00  0.00000000E+00
  0.00000000E+00  0.00000000E+00  0.00000000E+00
  0.00000000E+00  0.00000000E+00  0.00000000E+00
  0.00000000E+00  0.00000000E+00  0.00000000E+00
  0.00000000E+00  0.00000000E+00  0.00000000E+00
  0.00000000E+00  0.00000000E+00  0.00000000E+00
  0.00000000E+00  0.00000000E+00  0.00000000E+00
