Ba1Br1H1   [TET,TET,tP6] (STD_PRIM doi:1
   1.00000000000000     
     4.5675308883196433    0.0000000000000000    0.0000000000000000
    -0.0000000000000000    4.5675308883196433   -0.0000000000000000
     0.0000000000000000    0.0000000000000000    7.4684245352872169
   2   2   2
Direct
  0.2500000000000000  0.2500000000000000  0.1942235774069216
  0.7500000000000000  0.7500000000000000  0.8057764225930784
  0.2500000000000000  0.2500000000000000  0.6558053790063491
  0.7500000000000000  0.7500000000000000  0.3441946209936509
  0.7500000000000000  0.2500000000000000  0.0000000000000000
  0.2500000000000000  0.7500000000000000  0.0000000000000000
 
  0.00000000E+00  0.00000000E+00  0.00000000E+00
  0.00000000E+00  0.00000000E+00  0.00000000E+00
  0.00000000E+00  0.00000000E+00  0.00000000E+00
  0.00000000E+00  0.00000000E+00  0.00000000E+00
  0.00000000E+00  0.00000000E+00  0.00000000E+00
  0.00000000E+00  0.00000000E+00  0.00000000E+00
