Er3Os1   [ORC,ORC,oP16] (STD_PRIM doi:10
   1.00000000000000     
     6.2521445828748368    0.0000000000000000    0.0000000000000000
     0.0000000000000000    7.3482245181348196    0.0000000000000000
     0.0000000000000000    0.0000000000000000    8.9512713240107029
  12   4
Direct
  0.8343319371312805  0.1747995150715489  0.9370629445650639
  0.3343319371312805  0.3252004849284511  0.0629370554349361
  0.1656680628687195  0.8252004849284511  0.4370629445650638
  0.6656680628687195  0.6747995150715489  0.5629370554349361
  0.1656680628687195  0.8252004849284511  0.0629370554349361
  0.6656680628687195  0.6747995150715489  0.9370629445650639
  0.8343319371312805  0.1747995150715489  0.5629370554349361
  0.3343319371312805  0.3252004849284511  0.4370629445650638
  0.3694417751088514  0.0390247277128379  0.7500000000000000
  0.8694417751088515  0.4609752722871621  0.2500000000000000
  0.6305582248911485  0.9609752722871621  0.2500000000000000
  0.1305582248911486  0.5390247277128379  0.7500000000000000
  0.5385925604378244  0.3813338287856735  0.7500000000000000
  0.0385925604378245  0.1186661712143265  0.2500000000000000
  0.4614074395621756  0.6186661712143265  0.2500000000000000
  0.9614074395621756  0.8813338287856735  0.7500000000000000
 
  0.00000000E+00  0.00000000E+00  0.00000000E+00
  0.00000000E+00  0.00000000E+00  0.00000000E+00
  0.00000000E+00  0.00000000E+00  0.00000000E+00
  0.00000000E+00  0.00000000E+00  0.00000000E+00
  0.00000000E+00  0.00000000E+00  0.00000000E+00
  0.00000000E+00  0.00000000E+00  0.00000000E+00
  0.00000000E+00  0.00000000E+00  0.00000000E+00
  0.00000000E+00  0.00000000E+00  0.00000000E+00
  0.00000000E+00  0.00000000E+00  0.00000000E+00
  0.00000000E+00  0.00000000E+00  0.00000000E+00
  0.00000000E+00  0.00000000E+00  0.00000000E+00
  0.00000000E+00  0.00000000E+00  0.00000000E+00
  0.00000000E+00  0.00000000E+00  0.00000000E+00
  0.00000000E+00  0.00000000E+00  0.00000000E+00
  0.00000000E+00  0.00000000E+00  0.00000000E+00
  0.00000000E+00  0.00000000E+00  0.00000000E+00
