F2Zn1   [TET,TET,tP6] (STD_PRIM doi:10.1
   1.00000000000000     
     4.6780314054021908   -0.0000000000000000    0.0000000000000000
    -0.0000000000000000    4.6780314054021908    0.0000000000000000
     0.0000000000000000    0.0000000000000000    3.0804930765472438
   4   2
Direct
  0.3034632809288925  0.3034632809288925  0.0000000000000000
  0.6965367190711076  0.6965367190711075 -0.0000000000000000
  0.1965367190711075  0.8034632809288924  0.5000000000000000
  0.8034632809288924  0.1965367190711075  0.5000000000000000
  0.0000000000000000  0.0000000000000000  0.0000000000000000
  0.5000000000000000  0.5000000000000000  0.5000000000000000
 
  0.00000000E+00  0.00000000E+00  0.00000000E+00
  0.00000000E+00  0.00000000E+00  0.00000000E+00
  0.00000000E+00  0.00000000E+00  0.00000000E+00
  0.00000000E+00  0.00000000E+00  0.00000000E+00
  0.00000000E+00  0.00000000E+00  0.00000000E+00
  0.00000000E+00  0.00000000E+00  0.00000000E+00
