Ag1Cu4Nd1   [FCC,FCC,cF24] (STD_PRIM doi
   1.22474500000000     
    -0.0000000000000000    2.9870601554816130    2.9870601554816130
     2.9870601554816130    0.0000000000000000    2.9870601554816130
     2.9870601554816130    2.9870601554816130    0.0000000000000000
   1   4   1
Direct
  0.2500000000000000  0.2500000000000000  0.2500000000000000
  0.6230183744742903  0.1309448765771359  0.6230183744742903
  0.1309448765771359  0.6230183744742903  0.6230183744742903
  0.6230183744742903  0.6230183744742903  0.6230183744742903
  0.6230183744742903  0.6230183744742903  0.1309448765771359
  0.0000000000000000  0.0000000000000000  0.0000000000000000
 
  0.00000000E+00  0.00000000E+00  0.00000000E+00
  0.00000000E+00  0.00000000E+00  0.00000000E+00
  0.00000000E+00  0.00000000E+00  0.00000000E+00
  0.00000000E+00  0.00000000E+00  0.00000000E+00
  0.00000000E+00  0.00000000E+00  0.00000000E+00
  0.00000000E+00  0.00000000E+00  0.00000000E+00
