Cr2Hg1S4   [FCC,FCC,cF56] (STD_PRIM doi:
   1.22474500000000     
     0.0000000000000000    4.2621763574723781    4.2621763574723781
     4.2621763574723781   -0.0000000000000000    4.2621763574723781
     4.2621763574723781    4.2621763574723781    0.0000000000000000
   4   2   8
Direct
  0.6250000000000000  0.6250000000000000  0.1250000000000000
  0.6250000000000000  0.6250000000000000  0.6250000000000000
  0.1250000000000000  0.6250000000000000  0.6250000000000000
  0.6250000000000000  0.1250000000000000  0.6250000000000000
 -0.0000000000000000  0.0000000000000000 -0.0000000000000000
  0.2500000000000000  0.2500000000000000  0.2500000000000000
  0.3907866122197886  0.3907866122197886  0.8276401633406271
  0.3907866122197886  0.3907866122197886  0.3907866122197886
  0.8276401633406271  0.3907866122197886  0.3907866122197886
  0.3907866122197886  0.8276401633406271  0.3907866122197886
  0.8592133877802114  0.8592133877802114  0.8592133877802114
  0.8592133877802114  0.8592133877802114  0.4223598366593730
  0.4223598366593730  0.8592133877802114  0.8592133877802114
  0.8592133877802114  0.4223598366593730  0.8592133877802114
 
  0.00000000E+00  0.00000000E+00  0.00000000E+00
  0.00000000E+00  0.00000000E+00  0.00000000E+00
  0.00000000E+00  0.00000000E+00  0.00000000E+00
  0.00000000E+00  0.00000000E+00  0.00000000E+00
  0.00000000E+00  0.00000000E+00  0.00000000E+00
  0.00000000E+00  0.00000000E+00  0.00000000E+00
  0.00000000E+00  0.00000000E+00  0.00000000E+00
  0.00000000E+00  0.00000000E+00  0.00000000E+00
  0.00000000E+00  0.00000000E+00  0.00000000E+00
  0.00000000E+00  0.00000000E+00  0.00000000E+00
  0.00000000E+00  0.00000000E+00  0.00000000E+00
  0.00000000E+00  0.00000000E+00  0.00000000E+00
  0.00000000E+00  0.00000000E+00  0.00000000E+00
  0.00000000E+00  0.00000000E+00  0.00000000E+00
