As4Mo5   [BCT,BCT1,tI18] (STD_PRIM doi:1
   1.00000000000000     
    -4.8510906627795167    4.8510897252038303    1.6562608606540494
     4.8510906627795167   -4.8510897252038303    1.6562608606540494
     4.8510897252038303    4.8510906627795167   -1.6562608606540494
   4   5
Direct
  0.2864637866494024  0.9426715210064069  0.2291353076558163
  0.7135362133505977  0.0573284789935931  0.7708646923441836
  0.0573284789935931  0.2864637866494024  0.3437922656430025
  0.9426715210064069  0.7135362133505977  0.6562077343569974
  0.0000000000000000  0.0000000000000000  0.0000000000000000
  0.3793925581629911  0.7005145246150705  0.0799070827780616
  0.6206074418370089  0.2994854753849296  0.9200929172219384
  0.2994854753849296  0.3793925581629911  0.6788780335479135
  0.7005145246150705  0.6206074418370089  0.3211219664520865
 
  0.00000000E+00  0.00000000E+00  0.00000000E+00
  0.00000000E+00  0.00000000E+00  0.00000000E+00
  0.00000000E+00  0.00000000E+00  0.00000000E+00
  0.00000000E+00  0.00000000E+00  0.00000000E+00
  0.00000000E+00  0.00000000E+00  0.00000000E+00
  0.00000000E+00  0.00000000E+00  0.00000000E+00
  0.00000000E+00  0.00000000E+00  0.00000000E+00
  0.00000000E+00  0.00000000E+00  0.00000000E+00
  0.00000000E+00  0.00000000E+00  0.00000000E+00
