B1Li2Pd3 #212 - (B1Li2Pd3_ICSD_156465) -
   1.00000000000000     
     6.8153428474681093    0.0000000000000000    0.0000000000000000
     0.0000000000000000    6.8153428474681093   -0.0000000000000000
    -0.0000000000000000   -0.0000000000000000    6.8153428474681093
   4   8  12
Direct
  0.6250000000000000  0.6250000000000000  0.6250000000000000
  0.8750000000000000  0.3750000000000000  0.1250000000000000
  0.3750000000000000  0.1250000000000000  0.8750000000000000
  0.1250000000000000  0.8750000000000000  0.3750000000000000
  0.3049684686812218  0.3049684686812218  0.3049684686812218
  0.1950315313187781  0.6950315313187782  0.8049684686812218
  0.6950315313187782  0.8049684686812218  0.1950315313187781
  0.8049684686812218  0.1950315313187781  0.6950315313187782
  0.5549684686812218  0.0549684686812218  0.4450315313187782
  0.9450315313187782  0.9450315313187782  0.9450315313187782
  0.0549684686812218  0.4450315313187782  0.5549684686812218
  0.4450315313187782  0.5549684686812218  0.0549684686812218
  0.1250000000000000  0.3042533641241087  0.9457466358758914
  0.3750000000000000  0.6957466358758914  0.4457466358758913
  0.8750000000000000  0.8042533641241086  0.5542533641241086
  0.6250000000000000  0.1957466358758913  0.0542533641241087
  0.9457466358758914  0.1250000000000000  0.3042533641241087
  0.4457466358758913  0.3750000000000000  0.6957466358758914
  0.5542533641241086  0.8750000000000000  0.8042533641241086
  0.0542533641241087  0.6250000000000000  0.1957466358758913
  0.3042533641241087  0.9457466358758914  0.1250000000000000
  0.6957466358758914  0.4457466358758913  0.3750000000000000
  0.8042533641241086  0.5542533641241086  0.8750000000000000
  0.1957466358758913  0.0542533641241087  0.6250000000000000
 
  0.00000000E+00  0.00000000E+00  0.00000000E+00
  0.00000000E+00  0.00000000E+00  0.00000000E+00
  0.00000000E+00  0.00000000E+00  0.00000000E+00
  0.00000000E+00  0.00000000E+00  0.00000000E+00
  0.00000000E+00  0.00000000E+00  0.00000000E+00
  0.00000000E+00  0.00000000E+00  0.00000000E+00
  0.00000000E+00  0.00000000E+00  0.00000000E+00
  0.00000000E+00  0.00000000E+00  0.00000000E+00
  0.00000000E+00  0.00000000E+00  0.00000000E+00
  0.00000000E+00  0.00000000E+00  0.00000000E+00
  0.00000000E+00  0.00000000E+00  0.00000000E+00
  0.00000000E+00  0.00000000E+00  0.00000000E+00
  0.00000000E+00  0.00000000E+00  0.00000000E+00
  0.00000000E+00  0.00000000E+00  0.00000000E+00
  0.00000000E+00  0.00000000E+00  0.00000000E+00
  0.00000000E+00  0.00000000E+00  0.00000000E+00
  0.00000000E+00  0.00000000E+00  0.00000000E+00
  0.00000000E+00  0.00000000E+00  0.00000000E+00
  0.00000000E+00  0.00000000E+00  0.00000000E+00
  0.00000000E+00  0.00000000E+00  0.00000000E+00
  0.00000000E+00  0.00000000E+00  0.00000000E+00
  0.00000000E+00  0.00000000E+00  0.00000000E+00
  0.00000000E+00  0.00000000E+00  0.00000000E+00
  0.00000000E+00  0.00000000E+00  0.00000000E+00
