Al5W1   [HEX,HEX,hP12] (STD_PRIM doi:10.
   1.00000000000000     
     2.4576802287353274   -4.2568270249270865    0.0000000000000000
     2.4576713552354126    4.2568219018095235    0.0000000000000000
     0.0000000000000000    0.0000000000000000    8.9064383221527930
  10   2
Direct
  0.0000030564745614  0.0000061129491229  0.0000000000000000
  0.9999969435254386  0.9999938870508771  0.5000000000000000
  0.6666688972762387  0.3333377945524774  0.0000000000000000
  0.3333311027237613  0.6666622054475226  0.5000000000000000
  0.3378581177655775  0.0000000000000000  0.2500000000000000
  0.9999961368948789  0.3378524281199304  0.2499989275485675
  0.6621437087749484  0.6621475718800696  0.2500010724514325
  0.6621418822344225  0.0000000000000000  0.7500000000000000
  0.0000038631051211  0.6621475718800696  0.7499989275485675
  0.3378562912250516  0.3378524281199304  0.7500010724514325
  0.6666602446401839  0.3333204892803749  0.5000000000000000
  0.3333397553598161  0.6666795107196251  0.0000000000000000
 
  0.00000000E+00  0.00000000E+00  0.00000000E+00
  0.00000000E+00  0.00000000E+00  0.00000000E+00
  0.00000000E+00  0.00000000E+00  0.00000000E+00
  0.00000000E+00  0.00000000E+00  0.00000000E+00
  0.00000000E+00  0.00000000E+00  0.00000000E+00
  0.00000000E+00  0.00000000E+00  0.00000000E+00
  0.00000000E+00  0.00000000E+00  0.00000000E+00
  0.00000000E+00  0.00000000E+00  0.00000000E+00
  0.00000000E+00  0.00000000E+00  0.00000000E+00
  0.00000000E+00  0.00000000E+00  0.00000000E+00
  0.00000000E+00  0.00000000E+00  0.00000000E+00
  0.00000000E+00  0.00000000E+00  0.00000000E+00
