Cd1Dy2Te4   [FCC,FCC,cF56] (STD_PRIM doi
   1.22474500000000     
    -0.0000000000000000    5.1588386621444418    5.1588386621444418
     5.1588386621444418    0.0000000000000000    5.1588386621444418
     5.1588386621444418    5.1588386621444418   -0.0000000000000000
   2   4   8
Direct
  0.1250000000000000  0.6250000000000000  0.6250000000000000
  0.8750000000000000  0.3750000000000000  0.3750000000000000
 -0.0000000000000000  0.0000000000000000  0.0000000000000000
  0.5000000000000000  0.5000000000000000  0.0000000000000000
  0.5000000000000000  0.0000000000000000  0.0000000000000000
  0.5000000000000000 -0.0000000000000000  0.5000000000000000
  0.7321995325326545  0.7559334891557772  0.7559334891557772
  0.2559334891557772  0.2321995325326544  0.7559334891557772
  0.2559334891557772  0.7559334891557772  0.7559334891557772
  0.2559334891557772  0.7559334891557772  0.2321995325326544
  0.7440665108442228  0.7678004674673455  0.2440665108442229
  0.2678004674673456  0.2440665108442229  0.2440665108442229
  0.7440665108442228  0.2440665108442229  0.2440665108442229
  0.7440665108442228  0.2440665108442229  0.7678004674673455
 
  0.00000000E+00  0.00000000E+00  0.00000000E+00
  0.00000000E+00  0.00000000E+00  0.00000000E+00
  0.00000000E+00  0.00000000E+00  0.00000000E+00
  0.00000000E+00  0.00000000E+00  0.00000000E+00
  0.00000000E+00  0.00000000E+00  0.00000000E+00
  0.00000000E+00  0.00000000E+00  0.00000000E+00
  0.00000000E+00  0.00000000E+00  0.00000000E+00
  0.00000000E+00  0.00000000E+00  0.00000000E+00
  0.00000000E+00  0.00000000E+00  0.00000000E+00
  0.00000000E+00  0.00000000E+00  0.00000000E+00
  0.00000000E+00  0.00000000E+00  0.00000000E+00
  0.00000000E+00  0.00000000E+00  0.00000000E+00
  0.00000000E+00  0.00000000E+00  0.00000000E+00
  0.00000000E+00  0.00000000E+00  0.00000000E+00
