Er1Tl3   [CUB,CUB,cP4] (STD_PRIM doi:10.
   1.00000000000000     
     4.7508906372650443   -0.0000000000000000    0.0000000000000000
     0.0000000000000000    4.7508906372650443    0.0000000000000000
     0.0000000000000000   -0.0000000000000000    4.7508906372650443
   1   3
Direct
  0.0000000000000000  0.0000000000000000  0.0000000000000000
  0.0000000000000000  0.5000000000000000  0.5000000000000000
  0.5000000000000000  0.0000000000000000  0.5000000000000000
  0.5000000000000000  0.5000000000000000  0.0000000000000000
 
  0.00000000E+00  0.00000000E+00  0.00000000E+00
  0.00000000E+00  0.00000000E+00  0.00000000E+00
  0.00000000E+00  0.00000000E+00  0.00000000E+00
  0.00000000E+00  0.00000000E+00  0.00000000E+00
