C2Co1Ho1   [ORCC,ORCC,oS8] (STD_PRIM doi
   1.00000000000000     
     2.2307086189544676   -2.9913089843797418    0.0000000000000000
     2.2307086189544676    2.9913089843797418    0.0000000000000000
     0.0000000000000000    0.0000000000000000    3.5112219538199940
   2   1   1
Direct
  0.5390745470046311  0.1525962109134550  0.5000000000000000
  0.8474037890865451  0.4609254529953689  0.5000000000000000
  0.3853264927610185  0.6146735072389814  0.5000000000000000
  0.0031951711478039  0.9968048288521961  0.0000000000000000
 
  0.00000000E+00  0.00000000E+00  0.00000000E+00
  0.00000000E+00  0.00000000E+00  0.00000000E+00
  0.00000000E+00  0.00000000E+00  0.00000000E+00
  0.00000000E+00  0.00000000E+00  0.00000000E+00
