Ge2Ir2Tb1 #129.2 - (Ge2Ir2Tb1_ICSD_63674
    1.000000000000000     
     4.2117940805138714    0.0000000000000000    0.0000000000000000
     0.0000000000000000    4.2117940805138714    0.0000000000000000
     0.0000000000000000    0.0000000000000000   10.0721854298499700
   4   4   2
Direct
  0.7500000000000000  0.2500000000000000  0.5000000000000000
  0.2500000000000000  0.7500000000000000  0.5000000000000000
  0.2500000000000000  0.2500000000000000  0.1318828386745597
  0.7500000000000000  0.7500000000000000  0.8681171613254404
  0.7500000000000000  0.2500000000000000  0.0000000000000000
  0.2500000000000000  0.7500000000000000  0.0000000000000000
  0.2500000000000000  0.2500000000000000  0.3709064713771283
  0.7500000000000000  0.7500000000000000  0.6290935286228717
  0.2500000000000000  0.2500000000000000  0.7481791368772673
  0.7500000000000000  0.7500000000000000  0.2518208631227326
 
  0.00000000E+00  0.00000000E+00  0.00000000E+00
  0.00000000E+00  0.00000000E+00  0.00000000E+00
  0.00000000E+00  0.00000000E+00  0.00000000E+00
  0.00000000E+00  0.00000000E+00  0.00000000E+00
  0.00000000E+00  0.00000000E+00  0.00000000E+00
  0.00000000E+00  0.00000000E+00  0.00000000E+00
  0.00000000E+00  0.00000000E+00  0.00000000E+00
  0.00000000E+00  0.00000000E+00  0.00000000E+00
  0.00000000E+00  0.00000000E+00  0.00000000E+00
  0.00000000E+00  0.00000000E+00  0.00000000E+00
