S1Ta1   [HEX,HEX,hP2] (STD_PRIM doi:10.1
   1.00000000000000     
     1.6444296133389200   -2.8481614793212366    0.0000000000000000
     1.6444296133389200    2.8481614793212366    0.0000000000000000
     0.0000000000000000    0.0000000000000000    3.3788961170596767
   1   1
Direct
  0.3333142434108396  0.6666857565891604  0.5000000000000000
  0.9999857565891617  0.0000142434108383  0.0000000000000000
 
  0.00000000E+00  0.00000000E+00  0.00000000E+00
  0.00000000E+00  0.00000000E+00  0.00000000E+00
