Al2Ho1   [FCC,FCC,cF24] (STD_PRIM doi:10
   1.22474500000000     
     0.0000000000000000    3.2024928736693821    3.2024928736693821
     3.2024928736693821    0.0000000000000000    3.2024928736693821
     3.2024928736693821    3.2024928736693821    0.0000000000000000
   4   2
Direct
  0.3750000000000000  0.3750000000000000  0.8750000000000000
  0.3750000000000000  0.3750000000000000  0.3750000000000000
  0.3750000000000000  0.8750000000000000  0.3750000000000000
  0.8750000000000000  0.3750000000000000  0.3750000000000000
  0.0000000000000000  0.0000000000000000  0.0000000000000000
  0.7500000000000000  0.7500000000000000  0.7500000000000000
 
  0.00000000E+00  0.00000000E+00  0.00000000E+00
  0.00000000E+00  0.00000000E+00  0.00000000E+00
  0.00000000E+00  0.00000000E+00  0.00000000E+00
  0.00000000E+00  0.00000000E+00  0.00000000E+00
  0.00000000E+00  0.00000000E+00  0.00000000E+00
  0.00000000E+00  0.00000000E+00  0.00000000E+00
