Bi5La3Mg1   [HEX,HEX,hP18] (STD_PRIM doi
   1.00000000000000     
     4.9673997872811873   -8.6034903507408789    0.0000000000000000
     4.9673997872811873    8.6034903507408789    0.0000000000000000
    -0.0000000000000000    0.0000000000000000    6.6062907174492889
  10   6   2
Direct
  0.2660834834937235  0.0000336874175449  0.2500000000000000
  0.0000336874175449  0.2660834834937235  0.2500000000000000
  0.7339355324292924  0.7339355324292924  0.2500000000000000
  0.7339165165062763  0.9999663125824552  0.7500000000000000
  0.9999663125824552  0.7339165165062763  0.7500000000000000
  0.2660644675707078  0.2660644675707078  0.7500000000000000
  0.3332296326406506  0.6667703673593490 -0.0000000000000000
  0.6667703673593490  0.3332296326406506  0.5000000000000000
  0.6667703673593490  0.3332296326406506 -0.0000000000000000
  0.3332296326406506  0.6667703673593490  0.5000000000000000
  0.6195688247336461  0.0000079213936629  0.2500000000000000
  0.0000079213936629  0.6195688247336461  0.2500000000000000
  0.3804347429246643  0.3804347429246643  0.2500000000000000
  0.3804311752663540 -0.0000079213936628  0.7500000000000000
 -0.0000079213936628  0.3804311752663540  0.7500000000000000
  0.6195652570753357  0.6195652570753357  0.7500000000000000
  0.0000000000000000  0.0000000000000000  0.0000000000000000
 -0.0000000000000000 -0.0000000000000000  0.5000000000000000
 
  0.00000000E+00  0.00000000E+00  0.00000000E+00
  0.00000000E+00  0.00000000E+00  0.00000000E+00
  0.00000000E+00  0.00000000E+00  0.00000000E+00
  0.00000000E+00  0.00000000E+00  0.00000000E+00
  0.00000000E+00  0.00000000E+00  0.00000000E+00
  0.00000000E+00  0.00000000E+00  0.00000000E+00
  0.00000000E+00  0.00000000E+00  0.00000000E+00
  0.00000000E+00  0.00000000E+00  0.00000000E+00
  0.00000000E+00  0.00000000E+00  0.00000000E+00
  0.00000000E+00  0.00000000E+00  0.00000000E+00
  0.00000000E+00  0.00000000E+00  0.00000000E+00
  0.00000000E+00  0.00000000E+00  0.00000000E+00
  0.00000000E+00  0.00000000E+00  0.00000000E+00
  0.00000000E+00  0.00000000E+00  0.00000000E+00
  0.00000000E+00  0.00000000E+00  0.00000000E+00
  0.00000000E+00  0.00000000E+00  0.00000000E+00
  0.00000000E+00  0.00000000E+00  0.00000000E+00
  0.00000000E+00  0.00000000E+00  0.00000000E+00
