Bi1Pt1   [HEX,HEX,hP4] (STD_PRIM doi:10.
   1.00000000000000     
     1.9189181628980414   -3.3239525980291456    0.0000000000000000
     1.9189181628980414    3.3239525980291456   -0.0000000000000000
     0.0000000000000000   -0.0000000000000000    7.3478409822060611
   2   2
Direct
 -0.0000000000000000  0.0000000000000000  0.0000000000000000
 -0.0000000000000000 -0.0000000000000000  0.5000000000000000
  0.3333173685696227  0.6666826314303772  0.2500000000000000
  0.6666826314303772  0.3333173685696227  0.7500000000000000
 
  0.00000000E+00  0.00000000E+00  0.00000000E+00
  0.00000000E+00  0.00000000E+00  0.00000000E+00
  0.00000000E+00  0.00000000E+00  0.00000000E+00
  0.00000000E+00  0.00000000E+00  0.00000000E+00
