Hf1Pt1 #63 - (Hf1Pt1_ICSD_638781) - Hf1P
   1.00000000000000     
     1.6969635884845096   -5.1462360368136757    0.0000000000000000
     1.6969635884845096    5.1462360368136757    0.0000000000000000
     0.0000000000000000    0.0000000000000000    4.2668771532777550
   2   2
Direct
  0.8579197178261141  0.1420802821738860  0.7500000000000000
  0.1420802821738860  0.8579197178261141  0.2500000000000000
  0.5931157445692344  0.4068842554307656  0.7500000000000000
  0.4068842554307656  0.5931157445692344  0.2500000000000000
 
  0.00000000E+00  0.00000000E+00  0.00000000E+00
  0.00000000E+00  0.00000000E+00  0.00000000E+00
  0.00000000E+00  0.00000000E+00  0.00000000E+00
  0.00000000E+00  0.00000000E+00  0.00000000E+00
