Co1K1O2   [TET,TET,tP8] (STD_PRIM doi:10
   1.00000000000000     
     3.8526213132726181    0.0000000000000000    0.0000000000000000
    -0.0000000000000000    3.8526213132726181    0.0000000000000000
     0.0000000000000000   -0.0000000000000000    8.0152951685657285
   2   2   4
Direct
  0.2500000000000000  0.2500000000000000  0.0911342921305597
  0.7500000000000000  0.7500000000000000  0.9088657078694403
  0.2500000000000000  0.2500000000000000  0.6576854800102988
  0.7500000000000000  0.7500000000000000  0.3423145199897012
  0.2500000000000000  0.2500000000000000  0.3087342410092371
  0.7500000000000000  0.7500000000000000  0.6912657589907629
  0.7500000000000000  0.2500000000000000 -0.0000000000000000
  0.2500000000000000  0.7500000000000000 -0.0000000000000000
 
  0.00000000E+00  0.00000000E+00  0.00000000E+00
  0.00000000E+00  0.00000000E+00  0.00000000E+00
  0.00000000E+00  0.00000000E+00  0.00000000E+00
  0.00000000E+00  0.00000000E+00  0.00000000E+00
  0.00000000E+00  0.00000000E+00  0.00000000E+00
  0.00000000E+00  0.00000000E+00  0.00000000E+00
  0.00000000E+00  0.00000000E+00  0.00000000E+00
  0.00000000E+00  0.00000000E+00  0.00000000E+00
