O3Sr1Ti1   [BCT,BCT2,tI20] (STD_PRIM doi
   1.00000000000000     
    -2.8003498208635147    2.8003498208635147    3.9601396372999043
     2.8003519390751981   -2.8003519390751981    3.9601427890292955
     2.8140964734888536    2.8140985917005370   -3.9601412131645999
   6   2   2
Direct
  0.7500003484474238  0.7500003484474238  0.5000006968948475
  0.2499996515525763  0.2499996515525763  0.4999993031051525
  0.2742456656720951  0.7742462452099682 -0.0000000000000000
  0.7257543343279048  0.2257537547900318 -0.0000000000000000
  0.7742511924162528  0.7257494469571826  0.0000000000000000
  0.2257488075837472  0.2742505530428174  0.0000000000000000
  0.2499947186416863  0.7499947186416863  0.4999894372833798
  0.7500052813583137  0.2500052813583136  0.5000105627166201
 -0.0000000000000000  0.0000000000000000  0.0000000000000000
  0.5000000000000000  0.5000000000000000 -0.0000000000000000
 
  0.00000000E+00  0.00000000E+00  0.00000000E+00
  0.00000000E+00  0.00000000E+00  0.00000000E+00
  0.00000000E+00  0.00000000E+00  0.00000000E+00
  0.00000000E+00  0.00000000E+00  0.00000000E+00
  0.00000000E+00  0.00000000E+00  0.00000000E+00
  0.00000000E+00  0.00000000E+00  0.00000000E+00
  0.00000000E+00  0.00000000E+00  0.00000000E+00
  0.00000000E+00  0.00000000E+00  0.00000000E+00
  0.00000000E+00  0.00000000E+00  0.00000000E+00
  0.00000000E+00  0.00000000E+00  0.00000000E+00
