Er1In1Zn1 #194 - (Er1In1Zn1_ICSD_630703)
    1.000000000000000     
     2.3409242291837380   -4.0546592203359024    0.0000000000000000
     2.3409242291837380    4.0546592203359024    0.0000000000000000
     0.0000000000000000    0.0000000000000000    7.0328749753978022
   2   2   2
Direct
  0.0000000000000000  0.0000000000000000  0.0000000000000000
  0.0000000000000000  0.0000000000000000  0.5000000000000000
  0.3333373919252919  0.6666626080747081  0.2500000000000000
  0.6666626080747081  0.3333373919252919  0.7500000000000000
  0.3333365181684545  0.6666634818315453  0.7500000000000000
  0.6666634818315453  0.3333365181684545  0.2500000000000000
 
  0.00000000E+00  0.00000000E+00  0.00000000E+00
  0.00000000E+00  0.00000000E+00  0.00000000E+00
  0.00000000E+00  0.00000000E+00  0.00000000E+00
  0.00000000E+00  0.00000000E+00  0.00000000E+00
  0.00000000E+00  0.00000000E+00  0.00000000E+00
  0.00000000E+00  0.00000000E+00  0.00000000E+00
