Dy1In1Pt2   [HEX,HEX,hP8] (STD_PRIM doi:
   1.00000000000000     
     2.2756248565698116   -3.9414978705455561   -0.0000000000000000
     2.2757105223026386    3.9415473296794641   -0.0000000000000000
     0.0000000000000000    0.0000000000000000    9.0037651935063057
   2   2   4
Direct
  0.6666785068801047  0.3333570137602164  0.2500000000000000
  0.3333214931198954  0.6666429862397837  0.7500000000000000
 -0.0000000000000000 -0.0000000000000000  0.0000000000000000
  0.0000000000000000  0.0000000000000000  0.5000000000000000
  0.6666796874710572  0.3333593749421074  0.5910470100788510
  0.3333203125289498  0.6666406250578926  0.0910470100788510
  0.3333203125289498  0.6666406250578926  0.4089529899211490
  0.6666796874710572  0.3333593749421074  0.9089529899211490
 
  0.00000000E+00  0.00000000E+00  0.00000000E+00
  0.00000000E+00  0.00000000E+00  0.00000000E+00
  0.00000000E+00  0.00000000E+00  0.00000000E+00
  0.00000000E+00  0.00000000E+00  0.00000000E+00
  0.00000000E+00  0.00000000E+00  0.00000000E+00
  0.00000000E+00  0.00000000E+00  0.00000000E+00
  0.00000000E+00  0.00000000E+00  0.00000000E+00
  0.00000000E+00  0.00000000E+00  0.00000000E+00
