Al1Re2   [BCT,BCT2,tI6] (STD_PRIM doi:10
   1.00000000000000     
    -1.5052977608498788    1.5052977608498788    4.8128163838826232
     1.5052977608498788   -1.5052977608498788    4.8128163838826232
     1.5052977608498788    1.5052977608498788   -4.8128163838826232
   1   2
Direct
 -0.0000000000000000 -0.0000000000000000 -0.0000000000000000
  0.6686049450883534  0.6686049450883534 -0.0000000000000000
  0.3313950549116465  0.3313950549116465  0.0000000000000000
 
  0.00000000E+00  0.00000000E+00  0.00000000E+00
  0.00000000E+00  0.00000000E+00  0.00000000E+00
  0.00000000E+00  0.00000000E+00  0.00000000E+00
