Ba1P2Ru2 #139 - (Ba1P2Ru2_ICSD_602127) -
   1.00000000000000     
    -2.0345489657105236    2.0345489657105236    6.0673442750555768
     2.0345489657105236   -2.0345489657105236    6.0673442750555768
     2.0345489657105236    2.0345489657105236   -6.0673442750555768
   1   2   2
Direct
  0.0000000000000000  0.0000000000000000  0.0000000000000000
  0.3417936078904117  0.3417936078904117  0.0000000000000000
  0.6582063921095883  0.6582063921095883  0.0000000000000000
  0.2500000000000000  0.7500000000000000  0.5000000000000000
  0.7500000000000000  0.2500000000000000  0.5000000000000000
 
  0.00000000E+00  0.00000000E+00  0.00000000E+00
  0.00000000E+00  0.00000000E+00  0.00000000E+00
  0.00000000E+00  0.00000000E+00  0.00000000E+00
  0.00000000E+00  0.00000000E+00  0.00000000E+00
  0.00000000E+00  0.00000000E+00  0.00000000E+00
