Ba1Ga2   [HEX,HEX,hP3] (STD_PRIM doi:10.
   1.00000000000000     
     2.2312294293506310   -3.8645669043876656    0.0000000000000000
     2.2312294293506310    3.8645669043876656    0.0000000000000000
     0.0000000000000000    0.0000000000000000    5.1123555515835006
   1   2
Direct
  0.0000000000000000  0.0000000000000000  0.0000000000000000
  0.3333208911001505  0.6666791088998496  0.5000000000000000
  0.6666791088998496  0.3333208911001505  0.5000000000000000
 
  0.00000000E+00  0.00000000E+00  0.00000000E+00
  0.00000000E+00  0.00000000E+00  0.00000000E+00
  0.00000000E+00  0.00000000E+00  0.00000000E+00
