As1C1Nb2   [HEX,HEX,hP8] (STD_PRIM doi:1
   1.00000000000000     
     1.6742842315744970   -2.9000351913110567   -0.0000000000000000
     1.6743620317569907    2.9000801092673623    0.0000000000000000
     0.0000000000000000    0.0000000000000000   12.0318213422402707
   2   2   4
Direct
  0.3333545438999853  0.6666772719499926  0.7500000000000000
  0.6666454561000147  0.3333227280500073  0.2500000000000000
 -0.0000000000000000 -0.0000000000000000 -0.0000000000000000
  0.0000000000000000  0.0000000000000000  0.5000000000000000
  0.3333480069932924  0.6666740034966462  0.0940751687720752
  0.6666519930067076  0.3333259965033538  0.5940751687720751
  0.6666519930067076  0.3333259965033538  0.9059248312279249
  0.3333480069932924  0.6666740034966462  0.4059248312279248
 
  0.00000000E+00  0.00000000E+00  0.00000000E+00
  0.00000000E+00  0.00000000E+00  0.00000000E+00
  0.00000000E+00  0.00000000E+00  0.00000000E+00
  0.00000000E+00  0.00000000E+00  0.00000000E+00
  0.00000000E+00  0.00000000E+00  0.00000000E+00
  0.00000000E+00  0.00000000E+00  0.00000000E+00
  0.00000000E+00  0.00000000E+00  0.00000000E+00
  0.00000000E+00  0.00000000E+00  0.00000000E+00
