P3Rh1   [BCC,BCC,cI32] (STD_PRIM doi:10.
   1.00000000000000     
    -4.0289639896118814    4.0289639896118814    4.0289639896118814
     4.0289639896118814   -4.0289639896118814    4.0289639896118814
     4.0289639896118814    4.0289639896118814   -4.0289639896118814
  12   4
Direct
  0.8605779959721115  0.2169123080536338  0.3563343120815223
  0.8605779959721115  0.5042436838905819  0.6436656879184776
  0.1394220040278885  0.4957563161094181  0.3563343120815223
  0.1394220040278885  0.7830876919463662  0.6436656879184776
  0.7830876919463662  0.6436656879184776  0.1394220040278885
  0.4957563161094181  0.3563343120815223  0.1394220040278885
  0.5042436838905819  0.6436656879184776  0.8605779959721115
  0.2169123080536338  0.3563343120815223  0.8605779959721115
  0.3563343120815223  0.1394220040278885  0.4957563161094181
  0.6436656879184776  0.1394220040278885  0.7830876919463662
  0.3563343120815223  0.8605779959721115  0.2169123080536338
  0.6436656879184776  0.8605779959721115  0.5042436838905819
 -0.0000000000000000 -0.0000000000000000  0.5000000000000000
  0.5000000000000000  0.5000000000000000  0.5000000000000000
  0.0000000000000000  0.5000000000000000  0.0000000000000000
  0.5000000000000000  0.0000000000000000  0.0000000000000000
 
  0.00000000E+00  0.00000000E+00  0.00000000E+00
  0.00000000E+00  0.00000000E+00  0.00000000E+00
  0.00000000E+00  0.00000000E+00  0.00000000E+00
  0.00000000E+00  0.00000000E+00  0.00000000E+00
  0.00000000E+00  0.00000000E+00  0.00000000E+00
  0.00000000E+00  0.00000000E+00  0.00000000E+00
  0.00000000E+00  0.00000000E+00  0.00000000E+00
  0.00000000E+00  0.00000000E+00  0.00000000E+00
  0.00000000E+00  0.00000000E+00  0.00000000E+00
  0.00000000E+00  0.00000000E+00  0.00000000E+00
  0.00000000E+00  0.00000000E+00  0.00000000E+00
  0.00000000E+00  0.00000000E+00  0.00000000E+00
  0.00000000E+00  0.00000000E+00  0.00000000E+00
  0.00000000E+00  0.00000000E+00  0.00000000E+00
  0.00000000E+00  0.00000000E+00  0.00000000E+00
  0.00000000E+00  0.00000000E+00  0.00000000E+00
