Ce1O2 #136 - (Ce1O2_ICSD_169031) - Ce1O2
    1.000000000000000     
     5.2013080957574234    0.0000000000000000    0.0000000000000000
     0.0000000000000000    5.2013080957574234    0.0000000000000000
     0.0000000000000000    0.0000000000000000    3.6344629411910154
   2   4
Direct
  0.0000000000000000  0.0000000000000000  0.0000000000000000
  0.5000000000000000  0.5000000000000000  0.5000000000000000
  0.3113415224138782  0.3113415224138782  0.0000000000000000
  0.6886584775861219  0.6886584775861219  0.0000000000000000
  0.1886584775861218  0.8113415224138781  0.5000000000000000
  0.8113415224138781  0.1886584775861218  0.5000000000000000
 
  0.00000000E+00  0.00000000E+00  0.00000000E+00
  0.00000000E+00  0.00000000E+00  0.00000000E+00
  0.00000000E+00  0.00000000E+00  0.00000000E+00
  0.00000000E+00  0.00000000E+00  0.00000000E+00
  0.00000000E+00  0.00000000E+00  0.00000000E+00
  0.00000000E+00  0.00000000E+00  0.00000000E+00
