Ba2Sb1   [BCT,BCT2,tI12] (STD_PRIM doi:1
   1.00000000000000     
    -2.6431984059088003    2.6431984059088003    9.5153823402262248
     2.6431984059088003   -2.6431984059088003    9.5153823402262248
     2.6431984059088003    2.6431984059088003   -9.5153823402262248
   4   2
Direct
  0.0000000000000000  0.5000000000000000  0.5000000000000000
  0.5000000000000000  0.0000000000000000  0.5000000000000000
  0.6804501117297832  0.6804501117297832  0.0000000000000000
  0.3195498882702168  0.3195498882702168  0.0000000000000000
  0.8664603598944396  0.8664603598944396  0.0000000000000000
  0.1335396401055604  0.1335396401055604  0.0000000000000000
 
  0.00000000E+00  0.00000000E+00  0.00000000E+00
  0.00000000E+00  0.00000000E+00  0.00000000E+00
  0.00000000E+00  0.00000000E+00  0.00000000E+00
  0.00000000E+00  0.00000000E+00  0.00000000E+00
  0.00000000E+00  0.00000000E+00  0.00000000E+00
  0.00000000E+00  0.00000000E+00  0.00000000E+00
