Ge13Ir4Y3   [CUB,CUB,cP40] (STD_PRIM doi
   1.00000000000000     
     9.0170839013244972   -0.0000000000000000   -0.0000000000000000
     0.0000000000000000    9.0170839013244972   -0.0000000000000000
    -0.0000000000000000   -0.0000000000000000    9.0170839013244972
  26   8   6
Direct
  0.0000000000000000  0.0000000000000000  0.0000000000000000
  0.5000000000000000  0.5000000000000000  0.5000000000000000
  0.0000000000000000  0.1457246717301381  0.3071362622204793
  0.0000000000000000  0.8542753282698620  0.3071362622204793
 -0.0000000000000000  0.1457246717301381  0.6928637377795208
 -0.0000000000000000  0.8542753282698620  0.6928637377795208
  0.3071362622204793  0.0000000000000000  0.1457246717301381
  0.3071362622204793  0.0000000000000000  0.8542753282698620
  0.6928637377795208 -0.0000000000000000  0.1457246717301381
  0.6928637377795208 -0.0000000000000000  0.8542753282698620
  0.1457246717301381  0.3071362622204793  0.0000000000000000
  0.8542753282698620  0.3071362622204793 -0.0000000000000000
  0.1457246717301381  0.6928637377795208  0.0000000000000000
  0.8542753282698620  0.6928637377795208 -0.0000000000000000
  0.6457246717301380  0.5000000000000000  0.1928637377795208
  0.3542753282698619  0.5000000000000000  0.1928637377795208
  0.6457246717301380  0.5000000000000000  0.8071362622204792
  0.3542753282698619  0.5000000000000000  0.8071362622204792
  0.5000000000000000  0.8071362622204792  0.3542753282698619
  0.5000000000000000  0.8071362622204792  0.6457246717301380
  0.5000000000000000  0.1928637377795208  0.3542753282698619
  0.5000000000000000  0.1928637377795208  0.6457246717301380
  0.8071362622204792  0.6457246717301380  0.5000000000000000
  0.8071362622204792  0.3542753282698619  0.5000000000000000
  0.1928637377795208  0.6457246717301380  0.5000000000000000
  0.1928637377795208  0.3542753282698619  0.5000000000000000
  0.2500000000000000  0.2500000000000000  0.2500000000000000
  0.7500000000000000  0.7500000000000000  0.2500000000000000
  0.7500000000000000  0.2500000000000000  0.7500000000000000
  0.2500000000000000  0.7500000000000000  0.7500000000000000
  0.7500000000000000  0.7500000000000000  0.7500000000000000
  0.2500000000000000  0.2500000000000000  0.7500000000000000
  0.2500000000000000  0.7500000000000000  0.2500000000000000
  0.7500000000000000  0.2500000000000000  0.2500000000000000
  0.2500000000000000 -0.0000000000000000  0.5000000000000000
  0.7500000000000000  0.0000000000000000  0.5000000000000000
  0.5000000000000000  0.2500000000000000  0.0000000000000000
  0.5000000000000000  0.7500000000000000  0.0000000000000000
  0.0000000000000000  0.5000000000000000  0.2500000000000000
 -0.0000000000000000  0.5000000000000000  0.7500000000000000
 
  0.00000000E+00  0.00000000E+00  0.00000000E+00
  0.00000000E+00  0.00000000E+00  0.00000000E+00
  0.00000000E+00  0.00000000E+00  0.00000000E+00
  0.00000000E+00  0.00000000E+00  0.00000000E+00
  0.00000000E+00  0.00000000E+00  0.00000000E+00
  0.00000000E+00  0.00000000E+00  0.00000000E+00
  0.00000000E+00  0.00000000E+00  0.00000000E+00
  0.00000000E+00  0.00000000E+00  0.00000000E+00
  0.00000000E+00  0.00000000E+00  0.00000000E+00
  0.00000000E+00  0.00000000E+00  0.00000000E+00
  0.00000000E+00  0.00000000E+00  0.00000000E+00
  0.00000000E+00  0.00000000E+00  0.00000000E+00
  0.00000000E+00  0.00000000E+00  0.00000000E+00
  0.00000000E+00  0.00000000E+00  0.00000000E+00
  0.00000000E+00  0.00000000E+00  0.00000000E+00
  0.00000000E+00  0.00000000E+00  0.00000000E+00
  0.00000000E+00  0.00000000E+00  0.00000000E+00
  0.00000000E+00  0.00000000E+00  0.00000000E+00
  0.00000000E+00  0.00000000E+00  0.00000000E+00
  0.00000000E+00  0.00000000E+00  0.00000000E+00
  0.00000000E+00  0.00000000E+00  0.00000000E+00
  0.00000000E+00  0.00000000E+00  0.00000000E+00
  0.00000000E+00  0.00000000E+00  0.00000000E+00
  0.00000000E+00  0.00000000E+00  0.00000000E+00
  0.00000000E+00  0.00000000E+00  0.00000000E+00
  0.00000000E+00  0.00000000E+00  0.00000000E+00
  0.00000000E+00  0.00000000E+00  0.00000000E+00
  0.00000000E+00  0.00000000E+00  0.00000000E+00
  0.00000000E+00  0.00000000E+00  0.00000000E+00
  0.00000000E+00  0.00000000E+00  0.00000000E+00
  0.00000000E+00  0.00000000E+00  0.00000000E+00
  0.00000000E+00  0.00000000E+00  0.00000000E+00
  0.00000000E+00  0.00000000E+00  0.00000000E+00
  0.00000000E+00  0.00000000E+00  0.00000000E+00
  0.00000000E+00  0.00000000E+00  0.00000000E+00
  0.00000000E+00  0.00000000E+00  0.00000000E+00
  0.00000000E+00  0.00000000E+00  0.00000000E+00
  0.00000000E+00  0.00000000E+00  0.00000000E+00
  0.00000000E+00  0.00000000E+00  0.00000000E+00
  0.00000000E+00  0.00000000E+00  0.00000000E+00
