Hf2La2O7   [FCC,FCC,cF88] (STD_PRIM doi:
   1.22474500000000     
    -0.0000000000000000    4.4354038097081929    4.4354038097081929
     4.4354038097081929    0.0000000000000000    4.4354038097081929
     4.4354038097081929    4.4354038097081929   -0.0000000000000000
   4   4  14
Direct
  0.0000000000000000  0.0000000000000000  0.0000000000000000
  0.5000000000000000  0.0000000000000000  0.0000000000000000
 -0.0000000000000000  0.0000000000000000  0.5000000000000000
  0.0000000000000000  0.5000000000000000  0.0000000000000000
  0.5000000000000000  0.5000000000000000  0.5000000000000000
  0.0000000000000000  0.5000000000000000  0.5000000000000000
  0.5000000000000000  0.5000000000000000 -0.0000000000000000
  0.5000000000000000 -0.0000000000000000  0.5000000000000000
  0.3284754893837535  0.9215245106162465  0.3284754893837535
  0.9215245106162465  0.3284754893837535  0.9215245106162465
  0.3284754893837535  0.3284754893837535  0.9215245106162465
  0.9215245106162465  0.9215245106162465  0.3284754893837535
  0.9215245106162465  0.3284754893837535  0.3284754893837535
  0.3284754893837535  0.9215245106162465  0.9215245106162465
  0.0784754893837535  0.0784754893837535  0.6715245106162465
  0.6715245106162465  0.6715245106162465  0.0784754893837535
  0.0784754893837535  0.6715245106162465  0.0784754893837535
  0.6715245106162465  0.0784754893837535  0.6715245106162465
  0.0784754893837535  0.6715245106162465  0.6715245106162465
  0.6715245106162465  0.0784754893837535  0.0784754893837535
  0.3750000000000000  0.3750000000000000  0.3750000000000000
  0.6250000000000000  0.6250000000000000  0.6250000000000000
 
  0.00000000E+00  0.00000000E+00  0.00000000E+00
  0.00000000E+00  0.00000000E+00  0.00000000E+00
  0.00000000E+00  0.00000000E+00  0.00000000E+00
  0.00000000E+00  0.00000000E+00  0.00000000E+00
  0.00000000E+00  0.00000000E+00  0.00000000E+00
  0.00000000E+00  0.00000000E+00  0.00000000E+00
  0.00000000E+00  0.00000000E+00  0.00000000E+00
  0.00000000E+00  0.00000000E+00  0.00000000E+00
  0.00000000E+00  0.00000000E+00  0.00000000E+00
  0.00000000E+00  0.00000000E+00  0.00000000E+00
  0.00000000E+00  0.00000000E+00  0.00000000E+00
  0.00000000E+00  0.00000000E+00  0.00000000E+00
  0.00000000E+00  0.00000000E+00  0.00000000E+00
  0.00000000E+00  0.00000000E+00  0.00000000E+00
  0.00000000E+00  0.00000000E+00  0.00000000E+00
  0.00000000E+00  0.00000000E+00  0.00000000E+00
  0.00000000E+00  0.00000000E+00  0.00000000E+00
  0.00000000E+00  0.00000000E+00  0.00000000E+00
  0.00000000E+00  0.00000000E+00  0.00000000E+00
  0.00000000E+00  0.00000000E+00  0.00000000E+00
  0.00000000E+00  0.00000000E+00  0.00000000E+00
  0.00000000E+00  0.00000000E+00  0.00000000E+00
