Ba3P4   [ORCF,ORCF1,oF56] (STD_PRIM doi:
   1.00000000000000     
     0.0007378422701887    7.5089389724767104    9.2136232043278010
     3.1198651920776435    0.0009318209935286    9.2131101352912239
     3.1199882080791350    7.5083614110717525    0.0007146613921862
   6   8
Direct
  0.2532639002698448  0.7467299858182919  0.7467084638314092
  0.5030843138843614  0.9968529426474214  0.9967954352029267
  0.1697426965553107  0.6673900465457111  0.3211605676105712
  0.8416167356520802  0.3211816953281296  0.6674387144481561
  0.5825398706665027  0.0802781772544476  0.4083084619393104
  0.9287529930120891  0.4083651422497607  0.0803691614529177
  0.4442187529914252  0.7073779599468689  0.2494041082224568
  0.5989112052590171  0.2494127808716711  0.7074075657825875
  0.5422793952177611  0.8060484350597588  0.6513448146473604
  0.0003288132094411  0.6510563017828747  0.8057994346496371
  0.8193921453264695  0.1745629022128649  0.3361094533055685
  0.6699289924970352  0.3360759797171216  0.1745905026442548
  0.0753801863031590  0.4305332394211927  0.5799445125874316
  0.9136799991555160  0.5802144111438878  0.4306988036754010
 
  0.00000000E+00  0.00000000E+00  0.00000000E+00
  0.00000000E+00  0.00000000E+00  0.00000000E+00
  0.00000000E+00  0.00000000E+00  0.00000000E+00
  0.00000000E+00  0.00000000E+00  0.00000000E+00
  0.00000000E+00  0.00000000E+00  0.00000000E+00
  0.00000000E+00  0.00000000E+00  0.00000000E+00
  0.00000000E+00  0.00000000E+00  0.00000000E+00
  0.00000000E+00  0.00000000E+00  0.00000000E+00
  0.00000000E+00  0.00000000E+00  0.00000000E+00
  0.00000000E+00  0.00000000E+00  0.00000000E+00
  0.00000000E+00  0.00000000E+00  0.00000000E+00
  0.00000000E+00  0.00000000E+00  0.00000000E+00
  0.00000000E+00  0.00000000E+00  0.00000000E+00
  0.00000000E+00  0.00000000E+00  0.00000000E+00
