Cd1P1Pt5   [TET,TET,tP7] (STD_PRIM doi:1
   1.00000000000000     
     3.9419596320264425    0.0000000000000000    0.0000000000000000
     0.0000000000000000    3.9419596320264425   -0.0000000000000000
     0.0000000000000000    0.0000000000000000    7.1390199489146804
   1   1   5
Direct
  0.5000000000000000  0.5000000000000000  0.0000000000000000
  0.0000000000000000  0.0000000000000000  0.5000000000000000
  0.0000000000000000  0.0000000000000000  0.0000000000000000
 -0.0000000000000000  0.5000000000000000  0.2994918820028825
  0.5000000000000000  0.0000000000000000  0.2994918820028825
  0.0000000000000000  0.5000000000000000  0.7005081179971175
  0.5000000000000000 -0.0000000000000000  0.7005081179971175
 
  0.00000000E+00  0.00000000E+00  0.00000000E+00
  0.00000000E+00  0.00000000E+00  0.00000000E+00
  0.00000000E+00  0.00000000E+00  0.00000000E+00
  0.00000000E+00  0.00000000E+00  0.00000000E+00
  0.00000000E+00  0.00000000E+00  0.00000000E+00
  0.00000000E+00  0.00000000E+00  0.00000000E+00
  0.00000000E+00  0.00000000E+00  0.00000000E+00
