Na1O3Ta1   [TET,TET,tP10] (STD_PRIM doi:
   1.00000000000000     
     5.5746391443855128    0.0000000000000000    0.0000000000000000
     0.0000000000000000    5.5746391443855128    0.0000000000000000
     0.0000000000000000   -0.0000000000000000    3.9998704374670506
   2   6   2
Direct
  0.0000000000000000  0.5000000000000000  0.5000000000000000
  0.5000000000000000  0.0000000000000000  0.5000000000000000
  0.0000000000000000  0.0000000000000000  0.5000000000000000
  0.5000000000000000  0.5000000000000000  0.5000000000000000
  0.2955863486920722  0.2044136513079277  0.0000000000000000
  0.7044136513079278  0.7955863486920722 -0.0000000000000000
  0.7955863486920722  0.2955863486920722  0.0000000000000000
  0.2044136513079277  0.7044136513079278 -0.0000000000000000
  0.0000000000000000  0.0000000000000000  0.0000000000000000
  0.5000000000000000  0.5000000000000000  0.0000000000000000
 
  0.00000000E+00  0.00000000E+00  0.00000000E+00
  0.00000000E+00  0.00000000E+00  0.00000000E+00
  0.00000000E+00  0.00000000E+00  0.00000000E+00
  0.00000000E+00  0.00000000E+00  0.00000000E+00
  0.00000000E+00  0.00000000E+00  0.00000000E+00
  0.00000000E+00  0.00000000E+00  0.00000000E+00
  0.00000000E+00  0.00000000E+00  0.00000000E+00
  0.00000000E+00  0.00000000E+00  0.00000000E+00
  0.00000000E+00  0.00000000E+00  0.00000000E+00
  0.00000000E+00  0.00000000E+00  0.00000000E+00
