Ag1Ge1La1   [HEX,HEX,hP6] (STD_PRIM doi:
   1.00000000000000     
     2.3170333740238576   -4.0132433203427977    0.0000000000000000
     2.3170333740238576    4.0132433203427977    0.0000000000000000
     0.0000000000000000    0.0000000000000000    7.9792977454003067
   2   2   2
Direct
  0.3333302181823770  0.6666697818176230  0.0049206177883768
  0.6666697818176230  0.3333302181823770  0.5049206177883768
  0.3333350636134992  0.6666649363865007  0.4605868574430327
  0.6666649363865007  0.3333350636134992  0.9605868574430326
  0.9999948341288406  0.0000051658711594  0.2440925247685781
  0.0000051658711594  0.9999948341288406  0.7440925247685781
 
  0.00000000E+00  0.00000000E+00  0.00000000E+00
  0.00000000E+00  0.00000000E+00  0.00000000E+00
  0.00000000E+00  0.00000000E+00  0.00000000E+00
  0.00000000E+00  0.00000000E+00  0.00000000E+00
  0.00000000E+00  0.00000000E+00  0.00000000E+00
  0.00000000E+00  0.00000000E+00  0.00000000E+00
