Ca1Pt5   [HEX,HEX,hP6] (STD_PRIM doi:10.
   1.00000000000000     
     2.6763692690887830   -4.6355966729091422    0.0000000000000000
     2.6763692690887830    4.6355966729091422    0.0000000000000000
     0.0000000000000000    0.0000000000000000    4.4132314224352509
   1   5
Direct
 -0.0000000000000000  0.0000000000000000  0.0000000000000000
  0.3333142609537224  0.6666857390462777 -0.0000000000000000
  0.6666857390462777  0.3333142609537224  0.0000000000000000
  0.5000000000000000  0.0000000000000000  0.5000000000000000
 -0.0000000000000000  0.5000000000000000  0.5000000000000000
  0.5000000000000000  0.5000000000000000  0.5000000000000000
 
  0.00000000E+00  0.00000000E+00  0.00000000E+00
  0.00000000E+00  0.00000000E+00  0.00000000E+00
  0.00000000E+00  0.00000000E+00  0.00000000E+00
  0.00000000E+00  0.00000000E+00  0.00000000E+00
  0.00000000E+00  0.00000000E+00  0.00000000E+00
  0.00000000E+00  0.00000000E+00  0.00000000E+00
