P1   [ORCC,ORCC,oS8] (STD_PRIM doi:10.10
   1.00000000000000     
     1.7283809991868313   -1.7286497633371678    0.0000000000000000
     1.7283809991868313    1.7286497633371678    0.0000000000000000
     0.0000000000000000    0.0000000000000000    9.7777154092178673
   4
Direct
 -0.0000000000000000  0.0000000000000000  0.7500000000000000
 -0.0000000000000000 -0.0000000000000000  0.2500000000000000
  0.0002529355379617  0.0002529355379617  0.0000000000000000
  0.9997470644620383  0.9997470644620383  0.5000000000000000
 
  0.00000000E+00  0.00000000E+00  0.00000000E+00
  0.00000000E+00  0.00000000E+00  0.00000000E+00
  0.00000000E+00  0.00000000E+00  0.00000000E+00
  0.00000000E+00  0.00000000E+00  0.00000000E+00
