Al5C3N1   [HEX,HEX,hP18] (STD_PRIM doi:1
   1.00000000000000     
     1.6538417379350945   -2.8645346463521490    0.0000000000000000
     1.6538417379350945    2.8645346463521490    0.0000000000000000
     0.0000000000000000    0.0000000000000000   21.8371591586187783
  10   6   2
Direct
  0.3333303613178632  0.6666696386821368  0.0446099350339709
  0.6666696386821368  0.3333303613178632  0.5446099350339708
  0.9999844550815356  0.0000155449184645  0.1590363259617355
  0.0000155449184645  0.9999844550815356  0.6590363259617356
  0.3333184106612014  0.6666815893387985  0.2625486107643298
  0.6666815893387985  0.3333184106612014  0.7625486107643299
  0.9999836720991223  0.0000163279008776  0.3476216784931901
  0.0000163279008776  0.9999836720991223  0.8476216784931901
  0.3333293975001440  0.6666706024998560  0.4528490293541823
  0.6666706024998560  0.3333293975001440  0.9528490293541821
  0.9999982072323608  0.0000017927676393  0.0021008985479540
  0.0000017927676393  0.9999982072323608  0.5021008985479540
  0.9999829249820887  0.0000170750179112  0.2488525305393153
  0.0000170750179112  0.9999829249820887  0.7488525305393153
  0.3333185914557550  0.6666814085442448  0.3657950765496356
  0.6666814085442448  0.3333185914557550  0.8657950765496356
  0.3333196337466057  0.6666803662533943  0.1295859147556847
  0.6666803662533943  0.3333196337466057  0.6295859147556847
 
  0.00000000E+00  0.00000000E+00  0.00000000E+00
  0.00000000E+00  0.00000000E+00  0.00000000E+00
  0.00000000E+00  0.00000000E+00  0.00000000E+00
  0.00000000E+00  0.00000000E+00  0.00000000E+00
  0.00000000E+00  0.00000000E+00  0.00000000E+00
  0.00000000E+00  0.00000000E+00  0.00000000E+00
  0.00000000E+00  0.00000000E+00  0.00000000E+00
  0.00000000E+00  0.00000000E+00  0.00000000E+00
  0.00000000E+00  0.00000000E+00  0.00000000E+00
  0.00000000E+00  0.00000000E+00  0.00000000E+00
  0.00000000E+00  0.00000000E+00  0.00000000E+00
  0.00000000E+00  0.00000000E+00  0.00000000E+00
  0.00000000E+00  0.00000000E+00  0.00000000E+00
  0.00000000E+00  0.00000000E+00  0.00000000E+00
  0.00000000E+00  0.00000000E+00  0.00000000E+00
  0.00000000E+00  0.00000000E+00  0.00000000E+00
  0.00000000E+00  0.00000000E+00  0.00000000E+00
  0.00000000E+00  0.00000000E+00  0.00000000E+00
