Ba1Ru2Sb2   [BCT,BCT2,tI10] (STD_PRIM do
   1.00000000000000     
    -2.2626136342426602    2.2626136342426602    5.9747692561743033
     2.2626136342426602   -2.2626136342426602    5.9747692561743033
     2.2626136342426602    2.2626136342426602   -5.9747692561743033
   1   2   2
Direct
  0.0000000000000000  0.0000000000000000  0.0000000000000000
  0.7500000000000000  0.2500000000000000  0.5000000000000000
  0.2500000000000000  0.7500000000000000  0.5000000000000000
  0.6439307500439284  0.6439307500439284  0.0000000000000000
  0.3560692499560716  0.3560692499560716  0.0000000000000000
 
  0.00000000E+00  0.00000000E+00  0.00000000E+00
  0.00000000E+00  0.00000000E+00  0.00000000E+00
  0.00000000E+00  0.00000000E+00  0.00000000E+00
  0.00000000E+00  0.00000000E+00  0.00000000E+00
  0.00000000E+00  0.00000000E+00  0.00000000E+00
