In1La1Rh1   [HEX,HEX,hP9] (STD_PRIM doi:
   1.00000000000000     
     3.8486163563603868   -6.6662345048388918    0.0000000000000000
     3.8486163563603868    6.6662345048388918    0.0000000000000000
     0.0000000000000000    0.0000000000000000    4.1482860346875094
   3   3   3
Direct
  0.2448601005334364  0.0000078497386051  0.0000000000000000
  0.0000078497386051  0.2448601005334364  0.0000000000000000
  0.7551368204871389  0.7551368204871389  0.0000000000000000
  0.5872034712027895  0.9999980714420500  0.5000000000000000
  0.9999980714420500  0.5872034712027895  0.5000000000000000
  0.4127955936070541  0.4127955936070541  0.5000000000000000
  0.9999955821250928  0.9999955821250928  0.5000000000000000
  0.3333216313586445  0.6666808795051888  0.0000000000000000
  0.6666808795051888  0.3333216313586445  0.0000000000000000
 
  0.00000000E+00  0.00000000E+00  0.00000000E+00
  0.00000000E+00  0.00000000E+00  0.00000000E+00
  0.00000000E+00  0.00000000E+00  0.00000000E+00
  0.00000000E+00  0.00000000E+00  0.00000000E+00
  0.00000000E+00  0.00000000E+00  0.00000000E+00
  0.00000000E+00  0.00000000E+00  0.00000000E+00
  0.00000000E+00  0.00000000E+00  0.00000000E+00
  0.00000000E+00  0.00000000E+00  0.00000000E+00
  0.00000000E+00  0.00000000E+00  0.00000000E+00
