Al1N1Tb3   [CUB,CUB,cP5] (STD_PRIM doi:1
   1.00000000000000     
     4.8048404864774419    0.0000000000000000    0.0000000000000000
     0.0000000000000000    4.8048404864774419    0.0000000000000000
     0.0000000000000000    0.0000000000000000    4.8048404864774419
   1   1   3
Direct
  0.0000000000000000  0.0000000000000000  0.0000000000000000
  0.5000000000000000  0.5000000000000000  0.5000000000000000
  0.0000000000000000  0.5000000000000000  0.5000000000000000
  0.5000000000000000  0.0000000000000000  0.5000000000000000
  0.5000000000000000  0.5000000000000000  0.0000000000000000
 
  0.00000000E+00  0.00000000E+00  0.00000000E+00
  0.00000000E+00  0.00000000E+00  0.00000000E+00
  0.00000000E+00  0.00000000E+00  0.00000000E+00
  0.00000000E+00  0.00000000E+00  0.00000000E+00
  0.00000000E+00  0.00000000E+00  0.00000000E+00
