Au3K1Sn3 #59.2 - (Au3K1Sn3_ICSD_249645) 
    1.000000000000000     
     4.8229436995931945   -0.0000000000000001    0.0000000000000000
     0.0000000000000000    7.8875772523503151    0.0000000000000000
     0.0000000000000000    0.0000000000000000    9.5645625240330254
   6   2   6
Direct
  0.2500000000000000  0.2500000000000000  0.0710527666353421
  0.7500000000000000  0.7500000000000000  0.9289472333646579
  0.2500000000000000  0.5335991657068762  0.5813168572197310
  0.2500000000000000  0.9664008342931238  0.5813168572197310
  0.7500000000000000  0.0335991657068762  0.4186831427802689
  0.7500000000000000  0.4664008342931238  0.4186831427802689
  0.2500000000000000  0.7500000000000000  0.2648812761943344
  0.7500000000000000  0.2500000000000000  0.7351187238056657
  0.2500000000000000  0.2500000000000000  0.3828684920931488
  0.7500000000000000  0.7500000000000000  0.6171315079068511
  0.2500000000000000  0.5484925727030706  0.8781359439690215
  0.2500000000000000  0.9515074272969294  0.8781359439690215
  0.7500000000000000  0.0484925727030705  0.1218640560309714
  0.7500000000000000  0.4515074272969296  0.1218640560309714
 
  0.00000000E+00  0.00000000E+00  0.00000000E+00
  0.00000000E+00  0.00000000E+00  0.00000000E+00
  0.00000000E+00  0.00000000E+00  0.00000000E+00
  0.00000000E+00  0.00000000E+00  0.00000000E+00
  0.00000000E+00  0.00000000E+00  0.00000000E+00
  0.00000000E+00  0.00000000E+00  0.00000000E+00
  0.00000000E+00  0.00000000E+00  0.00000000E+00
  0.00000000E+00  0.00000000E+00  0.00000000E+00
  0.00000000E+00  0.00000000E+00  0.00000000E+00
  0.00000000E+00  0.00000000E+00  0.00000000E+00
  0.00000000E+00  0.00000000E+00  0.00000000E+00
  0.00000000E+00  0.00000000E+00  0.00000000E+00
  0.00000000E+00  0.00000000E+00  0.00000000E+00
  0.00000000E+00  0.00000000E+00  0.00000000E+00
