In2O3   [BCC,BCC,cI80] (STD_PRIM doi:10.
   1.01639600000000     
    -5.0665854465898565    5.0665854465898565    5.0665854465898565
     5.0665854465898565   -5.0665854465898565    5.0665854465898565
     5.0665854465898565    5.0665854465898565   -5.0665854465898565
  16  24
Direct
  0.0000000000000000  0.4999896573561037  0.0000000000000000
  0.5000000000000000  0.0000000000000000  0.9999896573561037
  0.0000103426438963  0.0000103426438963  0.5000103426438963
  0.4999896573561108  0.5000000000000000  0.5000000000000000
  0.9660518331521419  0.2160518331521419  0.2500000000000000
  0.5339481668478581  0.2839481668478581  0.7500000000000000
  0.2839481668478581  0.2500000000000000  0.0339481668478581
  0.2160518331521419  0.7500000000000000  0.4660518331521419
  0.7500000000000000  0.9660518331521419  0.7160518331521419
  0.2500000000000000  0.5339481668478581  0.7839481668478581
  0.4660596771213030  0.7160596771213030  0.2500000000000000
  0.0339403228786970  0.7839403228786970  0.7500000000000000
  0.7839403228786970  0.2500000000000000  0.5339403228786970
  0.7160596771213030  0.7500000000000000  0.9660596771213030
  0.7500000000000000  0.4660596771213030  0.2160596771213030
  0.2500000000000000  0.0339403228786970  0.2839403228786970
  0.0072249585638500  0.4629750296629390  0.2351259363572631
  0.4927750414361215  0.2279009777933917  0.9557500710990818
  0.2721509066943240  0.0370249703370609  0.5442499289009182
  0.2278490933056973  0.2720990222066083  0.2648740636427369
  0.2279009777933917  0.4557500710990819  0.9927750414361500
  0.4629750296629390  0.7351259363572631  0.5072249585638500
  0.2720990222066083  0.7648740636427369  0.7278490933056759
  0.0370249703370609  0.0442499289009181  0.7721509066943241
  0.7648740636427369  0.2278490933056760  0.7720990222066082
  0.0442499289009181  0.2721509066943027  0.5370249703370538
  0.4557500710990819  0.4927750414361499  0.7279009777933918
  0.7351259363572631  0.0072249585638785  0.9629750296629462
  0.7721089268421479  0.5442496682747177  0.0072288850467012
  0.7278910731578521  0.2351199582045533  0.2721407414325627
  0.9629792167719763  0.9557503317252823  0.2278592585674373
  0.5370207832280237  0.2648800417954467  0.4927711149532988
  0.2351199582045533  0.7721407414325627  0.2278910731578521
  0.5442496682747177  0.5072288850467013  0.2721089268421480
  0.2648800417954467  0.9927711149532987  0.0370207832280237
  0.9557503317252823  0.7278592585674373  0.4629792167719763
  0.9927711149532987  0.5370207832280237  0.7648800417954467
  0.7278592585674373  0.9629792167719763  0.4557503317252822
  0.7721407414325627  0.7278910731578521  0.7351199582045533
  0.5072288850467013  0.7721089268421479  0.0442496682747178
 
  0.00000000E+00  0.00000000E+00  0.00000000E+00
  0.00000000E+00  0.00000000E+00  0.00000000E+00
  0.00000000E+00  0.00000000E+00  0.00000000E+00
  0.00000000E+00  0.00000000E+00  0.00000000E+00
  0.00000000E+00  0.00000000E+00  0.00000000E+00
  0.00000000E+00  0.00000000E+00  0.00000000E+00
  0.00000000E+00  0.00000000E+00  0.00000000E+00
  0.00000000E+00  0.00000000E+00  0.00000000E+00
  0.00000000E+00  0.00000000E+00  0.00000000E+00
  0.00000000E+00  0.00000000E+00  0.00000000E+00
  0.00000000E+00  0.00000000E+00  0.00000000E+00
  0.00000000E+00  0.00000000E+00  0.00000000E+00
  0.00000000E+00  0.00000000E+00  0.00000000E+00
  0.00000000E+00  0.00000000E+00  0.00000000E+00
  0.00000000E+00  0.00000000E+00  0.00000000E+00
  0.00000000E+00  0.00000000E+00  0.00000000E+00
  0.00000000E+00  0.00000000E+00  0.00000000E+00
  0.00000000E+00  0.00000000E+00  0.00000000E+00
  0.00000000E+00  0.00000000E+00  0.00000000E+00
  0.00000000E+00  0.00000000E+00  0.00000000E+00
  0.00000000E+00  0.00000000E+00  0.00000000E+00
  0.00000000E+00  0.00000000E+00  0.00000000E+00
  0.00000000E+00  0.00000000E+00  0.00000000E+00
  0.00000000E+00  0.00000000E+00  0.00000000E+00
  0.00000000E+00  0.00000000E+00  0.00000000E+00
  0.00000000E+00  0.00000000E+00  0.00000000E+00
  0.00000000E+00  0.00000000E+00  0.00000000E+00
  0.00000000E+00  0.00000000E+00  0.00000000E+00
  0.00000000E+00  0.00000000E+00  0.00000000E+00
  0.00000000E+00  0.00000000E+00  0.00000000E+00
  0.00000000E+00  0.00000000E+00  0.00000000E+00
  0.00000000E+00  0.00000000E+00  0.00000000E+00
  0.00000000E+00  0.00000000E+00  0.00000000E+00
  0.00000000E+00  0.00000000E+00  0.00000000E+00
  0.00000000E+00  0.00000000E+00  0.00000000E+00
  0.00000000E+00  0.00000000E+00  0.00000000E+00
  0.00000000E+00  0.00000000E+00  0.00000000E+00
  0.00000000E+00  0.00000000E+00  0.00000000E+00
  0.00000000E+00  0.00000000E+00  0.00000000E+00
  0.00000000E+00  0.00000000E+00  0.00000000E+00
