Sn4Th5   [HEX,HEX,hP18] (STD_PRIM doi:10
   1.00000000000000     
     4.9354144644530997   -8.5483651367833993    0.0000000000000000
     4.9354144644530997    8.5483651367833993    0.0000000000000000
     0.0000000000000000    0.0000000000000000    6.7483141770166188
   8  10
Direct
  0.0000000000000000 -0.0000000000000000  0.0000000000000000
  0.0000000000000000  0.0000000000000000  0.5000000000000000
  0.6168830665164032  0.9999947715032294  0.2500000000000000
  0.9999947715032294  0.6168830665164032  0.2500000000000000
  0.3831250177333715  0.3831250177333715  0.2500000000000000
  0.3831169334835967  0.0000052284967707  0.7500000000000000
  0.0000052284967707  0.3831169334835967  0.7500000000000000
  0.6168749822666285  0.6168749822666285  0.7500000000000000
  0.3333303275793235  0.6666696724206765  0.0000000000000000
  0.6666696724206765  0.3333303275793235  0.5000000000000000
  0.6666696724206765  0.3333303275793235  0.0000000000000000
  0.3333303275793235  0.6666696724206765  0.5000000000000000
  0.2781838331707550  0.0000058251333656  0.2500000000000000
  0.0000058251333656  0.2781838331707550  0.2500000000000000
  0.7218158572620921  0.7218158572620921  0.2500000000000000
  0.7218161668292450  0.9999941748666344  0.7500000000000000
  0.9999941748666344  0.7218161668292450  0.7500000000000000
  0.2781841427379078  0.2781841427379078  0.7500000000000000
 
  0.00000000E+00  0.00000000E+00  0.00000000E+00
  0.00000000E+00  0.00000000E+00  0.00000000E+00
  0.00000000E+00  0.00000000E+00  0.00000000E+00
  0.00000000E+00  0.00000000E+00  0.00000000E+00
  0.00000000E+00  0.00000000E+00  0.00000000E+00
  0.00000000E+00  0.00000000E+00  0.00000000E+00
  0.00000000E+00  0.00000000E+00  0.00000000E+00
  0.00000000E+00  0.00000000E+00  0.00000000E+00
  0.00000000E+00  0.00000000E+00  0.00000000E+00
  0.00000000E+00  0.00000000E+00  0.00000000E+00
  0.00000000E+00  0.00000000E+00  0.00000000E+00
  0.00000000E+00  0.00000000E+00  0.00000000E+00
  0.00000000E+00  0.00000000E+00  0.00000000E+00
  0.00000000E+00  0.00000000E+00  0.00000000E+00
  0.00000000E+00  0.00000000E+00  0.00000000E+00
  0.00000000E+00  0.00000000E+00  0.00000000E+00
  0.00000000E+00  0.00000000E+00  0.00000000E+00
  0.00000000E+00  0.00000000E+00  0.00000000E+00
