N3Rh1   [BCC,BCC,cI32] (STD_PRIM doi:10.
   1.00000000000000     
    -3.3081204917156861    3.3081204917156861    3.3081204917156861
     3.3081204917156861   -3.3081204917156861    3.3081204917156861
     3.3081204917156861    3.3081204917156861   -3.3081204917156861
  12   4
Direct
  0.7250374578325076  0.1101589946707546  0.6148784631617530
  0.4952805315090016  0.1101589946707546  0.3851215368382470
  0.5047194684909985  0.8898410053292454  0.6148784631617530
  0.2749625421674923  0.8898410053292454  0.3851215368382470
  0.3851215368382470  0.2749625421674923  0.8898410053292454
  0.6148784631617530  0.5047194684909985  0.8898410053292454
  0.3851215368382470  0.4952805315090016  0.1101589946707546
  0.6148784631617530  0.7250374578325076  0.1101589946707546
  0.8898410053292454  0.6148784631617530  0.5047194684909985
  0.8898410053292454  0.3851215368382470  0.2749625421674923
  0.1101589946707546  0.6148784631617530  0.7250374578325076
  0.1101589946707546  0.3851215368382470  0.4952805315090016
  0.0000000000000000  0.0000000000000000  0.5000000000000000
  0.5000000000000000  0.5000000000000000  0.5000000000000000
  0.5000000000000000 -0.0000000000000000  0.0000000000000000
  0.0000000000000000  0.5000000000000000  0.0000000000000000
 
  0.00000000E+00  0.00000000E+00  0.00000000E+00
  0.00000000E+00  0.00000000E+00  0.00000000E+00
  0.00000000E+00  0.00000000E+00  0.00000000E+00
  0.00000000E+00  0.00000000E+00  0.00000000E+00
  0.00000000E+00  0.00000000E+00  0.00000000E+00
  0.00000000E+00  0.00000000E+00  0.00000000E+00
  0.00000000E+00  0.00000000E+00  0.00000000E+00
  0.00000000E+00  0.00000000E+00  0.00000000E+00
  0.00000000E+00  0.00000000E+00  0.00000000E+00
  0.00000000E+00  0.00000000E+00  0.00000000E+00
  0.00000000E+00  0.00000000E+00  0.00000000E+00
  0.00000000E+00  0.00000000E+00  0.00000000E+00
  0.00000000E+00  0.00000000E+00  0.00000000E+00
  0.00000000E+00  0.00000000E+00  0.00000000E+00
  0.00000000E+00  0.00000000E+00  0.00000000E+00
  0.00000000E+00  0.00000000E+00  0.00000000E+00
