Ga1Rh1Zr1 #189 - (Ga1Rh1Zr1_ICSD_635225)
   1.00000000000000     
     3.5938589855640326   -6.2248463717532845    0.0000000000000000
     3.5938589855640326    6.2248463717532845    0.0000000000000000
     0.0000000000000000    0.0000000000000000    3.4456236742535538
   3   3   3
Direct
  0.2647877477347017  0.9999979508155612  0.0000000000000000
  0.9999979508155612  0.2647877477347017  0.0000000000000000
  0.7352133551821559  0.7352133551821559  0.0000000000000000
  0.3333349412724378  0.6666683911614258  0.0000000000000000
  0.6666683911614258  0.3333349412724378  0.0000000000000000
  0.9999975088539710  0.9999975088539710  0.5000000000000000
  0.5997400882677517  0.0000006180522721  0.5000000000000000
  0.0000006180522721  0.5997400882677517  0.5000000000000000
  0.4002593986597158  0.4002593986597158  0.5000000000000000
 
  0.00000000E+00  0.00000000E+00  0.00000000E+00
  0.00000000E+00  0.00000000E+00  0.00000000E+00
  0.00000000E+00  0.00000000E+00  0.00000000E+00
  0.00000000E+00  0.00000000E+00  0.00000000E+00
  0.00000000E+00  0.00000000E+00  0.00000000E+00
  0.00000000E+00  0.00000000E+00  0.00000000E+00
  0.00000000E+00  0.00000000E+00  0.00000000E+00
  0.00000000E+00  0.00000000E+00  0.00000000E+00
  0.00000000E+00  0.00000000E+00  0.00000000E+00
