K1Sb1Sn1   [HEX,HEX,hP6] (STD_PRIM doi:1
   1.00000000000000     
     2.2387576786016119   -3.8776420451729492   -0.0000000000000000
     2.2386950704596016    3.8776058983453061    0.0000000000000000
     0.0000000000000000    0.0000000000000000   13.2724021758692245
   2   2   2
Direct
  0.6666924650054086  0.3333849300108099  0.7020537287477577
  0.3333075349945915  0.6666150699891902  0.2020537287477578
  0.6666800488730529  0.3333600977461129  0.3910897337670260
  0.3333199511269471  0.6666399022538871  0.8910897337670260
  0.9999851386605291  0.9999702773210510  0.0009565374852136
  0.0000148613394709  0.0000297226789490  0.5009565374852135
 
  0.00000000E+00  0.00000000E+00  0.00000000E+00
  0.00000000E+00  0.00000000E+00  0.00000000E+00
  0.00000000E+00  0.00000000E+00  0.00000000E+00
  0.00000000E+00  0.00000000E+00  0.00000000E+00
  0.00000000E+00  0.00000000E+00  0.00000000E+00
  0.00000000E+00  0.00000000E+00  0.00000000E+00
