Be2W1   [HEX,HEX,hP12] (STD_PRIM doi:10.
   1.00000000000000     
     2.2367457774126875   -3.8740625991956614   -0.0000000000000000
     2.2367457774126875    3.8740625991956614    0.0000000000000000
     0.0000000000000000    0.0000000000000000    7.3566213115395884
   8   4
Direct
 -0.0000000000000000 -0.0000000000000000  0.0000000000000000
  0.0000000000000000  0.0000000000000000  0.5000000000000000
  0.8300966537260012  0.6601843643516869  0.2500000000000000
  0.3398156356483131  0.1699033462739988  0.2500000000000000
  0.8300851656488938  0.1699148343511061  0.2500000000000000
  0.1699033462739988  0.3398156356483131  0.7500000000000000
  0.6601843643516869  0.8300966537260012  0.7500000000000000
  0.1699148343511061  0.8300851656488938  0.7500000000000000
  0.3333335967179161  0.6666664032820839  0.0629877495712951
  0.6666664032820839  0.3333335967179161  0.5629877495712952
  0.6666664032820839  0.3333335967179161  0.9370122504287048
  0.3333335967179161  0.6666664032820839  0.4370122504287048
 
  0.00000000E+00  0.00000000E+00  0.00000000E+00
  0.00000000E+00  0.00000000E+00  0.00000000E+00
  0.00000000E+00  0.00000000E+00  0.00000000E+00
  0.00000000E+00  0.00000000E+00  0.00000000E+00
  0.00000000E+00  0.00000000E+00  0.00000000E+00
  0.00000000E+00  0.00000000E+00  0.00000000E+00
  0.00000000E+00  0.00000000E+00  0.00000000E+00
  0.00000000E+00  0.00000000E+00  0.00000000E+00
  0.00000000E+00  0.00000000E+00  0.00000000E+00
  0.00000000E+00  0.00000000E+00  0.00000000E+00
  0.00000000E+00  0.00000000E+00  0.00000000E+00
  0.00000000E+00  0.00000000E+00  0.00000000E+00
