Mo3N1Ni2   [CUB,CUB,cP24] (STD_PRIM doi:
   1.00000000000000     
     6.6693070796145122    0.0000000000000000    0.0000000000000000
    -0.0000000000000000    6.6693070796145122   -0.0000000000000000
     0.0000000000000000   -0.0000000000000000    6.6693070796145122
  12   4   8
Direct
  0.2002397894949814  0.4502397894949814  0.1250000000000000
  0.2997602105050186  0.5497602105050186  0.6250000000000000
  0.7997602105050186  0.9502397894949814  0.3750000000000000
  0.7002397894949814  0.0497602105050186  0.8750000000000000
  0.1250000000000000  0.2002397894949814  0.4502397894949814
  0.6250000000000000  0.2997602105050186  0.5497602105050186
  0.3750000000000000  0.7997602105050186  0.9502397894949814
  0.8750000000000000  0.7002397894949814  0.0497602105050186
  0.4502397894949814  0.1250000000000000  0.2002397894949814
  0.5497602105050186  0.6250000000000000  0.2997602105050186
  0.9502397894949814  0.3750000000000000  0.7997602105050186
  0.0497602105050186  0.8750000000000000  0.7002397894949814
  0.3750000000000000  0.3750000000000000  0.3750000000000000
  0.1250000000000000  0.6250000000000000  0.8750000000000000
  0.6250000000000000  0.8750000000000000  0.1250000000000000
  0.8750000000000000  0.1250000000000000  0.6250000000000000
  0.0663310731457729  0.0663310731457729  0.0663310731457729
  0.4336689268542271  0.9336689268542271  0.5663310731457729
  0.9336689268542271  0.5663310731457729  0.4336689268542271
  0.5663310731457729  0.4336689268542271  0.9336689268542271
  0.8163310731457729  0.3163310731457729  0.1836689268542271
  0.6836689268542271  0.6836689268542271  0.6836689268542271
  0.3163310731457729  0.1836689268542271  0.8163310731457729
  0.1836689268542271  0.8163310731457729  0.3163310731457729
 
  0.00000000E+00  0.00000000E+00  0.00000000E+00
  0.00000000E+00  0.00000000E+00  0.00000000E+00
  0.00000000E+00  0.00000000E+00  0.00000000E+00
  0.00000000E+00  0.00000000E+00  0.00000000E+00
  0.00000000E+00  0.00000000E+00  0.00000000E+00
  0.00000000E+00  0.00000000E+00  0.00000000E+00
  0.00000000E+00  0.00000000E+00  0.00000000E+00
  0.00000000E+00  0.00000000E+00  0.00000000E+00
  0.00000000E+00  0.00000000E+00  0.00000000E+00
  0.00000000E+00  0.00000000E+00  0.00000000E+00
  0.00000000E+00  0.00000000E+00  0.00000000E+00
  0.00000000E+00  0.00000000E+00  0.00000000E+00
  0.00000000E+00  0.00000000E+00  0.00000000E+00
  0.00000000E+00  0.00000000E+00  0.00000000E+00
  0.00000000E+00  0.00000000E+00  0.00000000E+00
  0.00000000E+00  0.00000000E+00  0.00000000E+00
  0.00000000E+00  0.00000000E+00  0.00000000E+00
  0.00000000E+00  0.00000000E+00  0.00000000E+00
  0.00000000E+00  0.00000000E+00  0.00000000E+00
  0.00000000E+00  0.00000000E+00  0.00000000E+00
  0.00000000E+00  0.00000000E+00  0.00000000E+00
  0.00000000E+00  0.00000000E+00  0.00000000E+00
  0.00000000E+00  0.00000000E+00  0.00000000E+00
  0.00000000E+00  0.00000000E+00  0.00000000E+00
