Rh1Sb3   [BCC,BCC,cI32] (STD_PRIM doi:10
   1.00000000000000     
    -4.6784737058910748    4.6784737058910748    4.6784737058910748
     4.6784737058910748   -4.6784737058910748    4.6784737058910748
     4.6784737058910748    4.6784737058910748   -4.6784737058910748
   4  12
Direct
  0.5000000000000000  0.0000000000000000  0.0000000000000000
  0.5000000000000000  0.5000000000000000  0.5000000000000000
  0.0000000000000000  0.0000000000000000  0.5000000000000000
  0.0000000000000000  0.5000000000000000 -0.0000000000000000
  0.3400425363179974  0.8450507240827341  0.1850932604007314
  0.6599574636820027  0.8450507240827341  0.5050081877647368
  0.3400425363179974  0.1549492759172659  0.4949918122352632
  0.6599574636820027  0.1549492759172659  0.8149067395992685
  0.1549492759172659  0.8149067395992685  0.6599574636820027
  0.1549492759172659  0.4949918122352632  0.3400425363179974
  0.8450507240827341  0.5050081877647368  0.6599574636820027
  0.8450507240827341  0.1850932604007314  0.3400425363179974
  0.4949918122352632  0.3400425363179974  0.1549492759172659
  0.8149067395992685  0.6599574636820027  0.1549492759172659
  0.1850932604007314  0.3400425363179974  0.8450507240827341
  0.5050081877647368  0.6599574636820027  0.8450507240827341
 
  0.00000000E+00  0.00000000E+00  0.00000000E+00
  0.00000000E+00  0.00000000E+00  0.00000000E+00
  0.00000000E+00  0.00000000E+00  0.00000000E+00
  0.00000000E+00  0.00000000E+00  0.00000000E+00
  0.00000000E+00  0.00000000E+00  0.00000000E+00
  0.00000000E+00  0.00000000E+00  0.00000000E+00
  0.00000000E+00  0.00000000E+00  0.00000000E+00
  0.00000000E+00  0.00000000E+00  0.00000000E+00
  0.00000000E+00  0.00000000E+00  0.00000000E+00
  0.00000000E+00  0.00000000E+00  0.00000000E+00
  0.00000000E+00  0.00000000E+00  0.00000000E+00
  0.00000000E+00  0.00000000E+00  0.00000000E+00
  0.00000000E+00  0.00000000E+00  0.00000000E+00
  0.00000000E+00  0.00000000E+00  0.00000000E+00
  0.00000000E+00  0.00000000E+00  0.00000000E+00
  0.00000000E+00  0.00000000E+00  0.00000000E+00
