O2Si1   [FCC,FCC,cF24] (STD_PRIM doi:10.
   1.22474500000000     
    -0.0000000000000000    3.0452725058616021    3.0452725058616021
     3.0452725058616021    0.0000000000000000    3.0452725058616021
     3.0452725058616021    3.0452725058616021   -0.0000000000000000
   4   2
Direct
  0.6250000000000000  0.1250000000000000  0.1250000000000000
  0.1250000000000000  0.6250000000000000  0.1250000000000000
  0.1250000000000000  0.1250000000000000  0.6250000000000000
  0.1250000000000000  0.1250000000000000  0.1250000000000000
  0.0000000000000000  0.0000000000000000  0.0000000000000000
  0.2500000000000000  0.2500000000000000  0.2500000000000000
 
  0.00000000E+00  0.00000000E+00  0.00000000E+00
  0.00000000E+00  0.00000000E+00  0.00000000E+00
  0.00000000E+00  0.00000000E+00  0.00000000E+00
  0.00000000E+00  0.00000000E+00  0.00000000E+00
  0.00000000E+00  0.00000000E+00  0.00000000E+00
  0.00000000E+00  0.00000000E+00  0.00000000E+00
