Ag1Al1Se2   [BCT,BCT2,tI16] (STD_PRIM do
   1.00000000000000     
    -3.0451025419989066    3.0451025419989066    5.5064153266911591
     3.0451025419989066   -3.0451025419989066    5.5064153266911591
     3.0451025419989066    3.0451025419989066   -5.5064153266911591
   2   2   4
Direct
  0.0000000000000000 -0.0000000000000000  0.0000000000000000
  0.7500000000000000  0.2500000000000000  0.5000000000000000
  0.5000000000000000  0.5000000000000000 -0.0000000000000000
  0.2500000000000000  0.7500000000000000  0.5000000000000000
  0.1647904821713820  0.1250000000000000  0.5397904821713820
  0.5852095178286180  0.6250000000000000  0.4602095178286180
  0.3750000000000000  0.8352095178286180  0.9602095178286180
  0.8750000000000000  0.4147904821713820  0.0397904821713820
 
  0.00000000E+00  0.00000000E+00  0.00000000E+00
  0.00000000E+00  0.00000000E+00  0.00000000E+00
  0.00000000E+00  0.00000000E+00  0.00000000E+00
  0.00000000E+00  0.00000000E+00  0.00000000E+00
  0.00000000E+00  0.00000000E+00  0.00000000E+00
  0.00000000E+00  0.00000000E+00  0.00000000E+00
  0.00000000E+00  0.00000000E+00  0.00000000E+00
  0.00000000E+00  0.00000000E+00  0.00000000E+00
