As1Ga1   [ORCI,ORCI,oI4] (STD_PRIM doi:1
   1.00000000000000     
    -1.4617825401798314    2.4654622003934703    2.6578146761705166
     1.4617825401798314   -2.4654622003934703    2.6578146761705166
     1.4617825401798314    2.4654622003934703   -2.6578146761705166
   1   1
Direct
  0.0000000000000000  0.0067644438363519  0.0067644438363519
  0.5000000000000000  0.4182355561636453  0.9182355561636453
 
  0.00000000E+00  0.00000000E+00  0.00000000E+00
  0.00000000E+00  0.00000000E+00  0.00000000E+00
