Pt1Sn2   [FCC,FCC,cF12] (STD_PRIM doi:10
   1.22474500000000     
     0.0000000000000000    2.6954578823666044    2.6954578823666044
     2.6954578823666044    0.0000000000000000    2.6954578823666044
     2.6954578823666044    2.6954578823666044    0.0000000000000000
   1   2
Direct
  0.0000000000000000  0.0000000000000000  0.0000000000000000
  0.2500000000000000  0.2500000000000000  0.2500000000000000
  0.7500000000000000  0.7500000000000000  0.7500000000000000
 
  0.00000000E+00  0.00000000E+00  0.00000000E+00
  0.00000000E+00  0.00000000E+00  0.00000000E+00
  0.00000000E+00  0.00000000E+00  0.00000000E+00
