Cu1Er1Si1   [HEX,HEX,hP6] (STD_PRIM doi:
   1.00000000000000     
     2.0724028868648552   -3.5895070938023488    0.0000000000000000
     2.0723261537594495    3.5894627919232867   -0.0000000000000000
    -0.0000000000000000    0.0000000000000000    7.3286304863753911
   2   2   2
Direct
  0.6666867870054827  0.3333735740109655  0.2500000000000000
  0.3333132129945173  0.6666264259890345  0.7500000000000000
 -0.0000000000000000  0.0000000000000000 -0.0000000000000000
  0.0000000000000000 -0.0000000000000000  0.5000000000000000
  0.6666847381770049  0.3333694763540027  0.7500000000000000
  0.3333152618229951  0.6666305236459973  0.2500000000000000
 
  0.00000000E+00  0.00000000E+00  0.00000000E+00
  0.00000000E+00  0.00000000E+00  0.00000000E+00
  0.00000000E+00  0.00000000E+00  0.00000000E+00
  0.00000000E+00  0.00000000E+00  0.00000000E+00
  0.00000000E+00  0.00000000E+00  0.00000000E+00
  0.00000000E+00  0.00000000E+00  0.00000000E+00
