Ge4La1Rh6   [HEX,HEX,hP11] (STD_PRIM doi
   1.00000000000000     
     3.6150567366472988   -6.2614619401172620   -0.0000000000000000
     3.6150567366472988    6.2614619401172620   -0.0000000000000000
     0.0000000000000000    0.0000000000000000    3.8979620098505534
   4   1   6
Direct
  0.6666669999999968  0.3333330000000032 -0.0000000000000000
  0.2003971778492163  0.7996028221507837  0.5000000000000000
  0.2003971778492163  0.4007943556984185  0.5000000000000000
  0.5992056443015814  0.7996028221507837  0.5000000000000000
  0.0000000000000000 -0.0000000000000000  0.0000000000000000
  0.4674620151439861  0.5325379848560139  0.0000000000000000
  0.4674620151439861  0.9349240302879580 -0.0000000000000000
  0.0650759697120419  0.5325379848560139  0.0000000000000000
  0.7989870449225661  0.2010129550774338  0.5000000000000000
  0.7989870449225661  0.5979740898451323  0.5000000000000000
  0.4020259101548677  0.2010129550774338  0.5000000000000000
 
  0.00000000E+00  0.00000000E+00  0.00000000E+00
  0.00000000E+00  0.00000000E+00  0.00000000E+00
  0.00000000E+00  0.00000000E+00  0.00000000E+00
  0.00000000E+00  0.00000000E+00  0.00000000E+00
  0.00000000E+00  0.00000000E+00  0.00000000E+00
  0.00000000E+00  0.00000000E+00  0.00000000E+00
  0.00000000E+00  0.00000000E+00  0.00000000E+00
  0.00000000E+00  0.00000000E+00  0.00000000E+00
  0.00000000E+00  0.00000000E+00  0.00000000E+00
  0.00000000E+00  0.00000000E+00  0.00000000E+00
  0.00000000E+00  0.00000000E+00  0.00000000E+00
