Al1C1V2   [HEX,HEX,hP8] (STD_PRIM doi:10
   1.00000000000000     
     1.4602612609779637   -2.5292466963384297   -0.0000000000000000
     1.4602526427042166    2.5292417205757616    0.0000000000000000
     0.0000000000000000    0.0000000000000000   13.2284024147455774
   2   2   4
Direct
  0.6666848653689709  0.3333697307379417  0.7500000000000000
  0.3333151346310292  0.6666302692620584  0.2500000000000000
 -0.0000000000000000 -0.0000000000000000 -0.0000000000000000
  0.0000000000000000  0.0000000000000000  0.5000000000000000
  0.6666712070734019  0.3333424141468109  0.0865671359779551
  0.3333287929265981  0.6666575858531891  0.5865671359779551
  0.3333287929265981  0.6666575858531891  0.9134328640220449
  0.6666712070734019  0.3333424141468109  0.4134328640220449
 
  0.00000000E+00  0.00000000E+00  0.00000000E+00
  0.00000000E+00  0.00000000E+00  0.00000000E+00
  0.00000000E+00  0.00000000E+00  0.00000000E+00
  0.00000000E+00  0.00000000E+00  0.00000000E+00
  0.00000000E+00  0.00000000E+00  0.00000000E+00
  0.00000000E+00  0.00000000E+00  0.00000000E+00
  0.00000000E+00  0.00000000E+00  0.00000000E+00
  0.00000000E+00  0.00000000E+00  0.00000000E+00
