Bi4Cu4Mn3   [FCC,FCC,cF88] (STD_PRIM doi
   1.22474500000000     
    -0.0000000000000000    5.0160183262053479    5.0160183262053479
     5.0160183262053479   -0.0000000000000000    5.0160183262053479
     5.0160183262053479    5.0160183262053479    0.0000000000000000
   8   8   6
Direct
  0.2500000000000000  0.2500000000000000  0.2500000000000000
  0.7500000000000000  0.7500000000000000  0.7500000000000000
  0.2824516286019060  0.2824516286019060  0.7175483713980939
  0.7175483713980939  0.7175483713980939  0.2824516286019060
  0.7175483713980939  0.2824516286019060  0.2824516286019060
  0.2824516286019060  0.7175483713980939  0.7175483713980939
  0.2824516286019060  0.7175483713980939  0.2824516286019060
  0.7175483713980939  0.2824516286019060  0.7175483713980939
  0.1079520247223196  0.1079520247223196  0.1079520247223196
  0.1079520247223196  0.6761439258330411  0.1079520247223196
  0.6761439258330411  0.1079520247223196  0.1079520247223196
  0.1079520247223196  0.1079520247223196  0.6761439258330411
  0.8920479752776803  0.3238560741669588  0.8920479752776803
  0.8920479752776803  0.8920479752776803  0.8920479752776803
  0.3238560741669588  0.8920479752776803  0.8920479752776803
  0.8920479752776803  0.8920479752776803  0.3238560741669588
 -0.0000000000000000  0.0000000000000000  0.5000000000000000
  0.5000000000000000  0.5000000000000000  0.0000000000000000
  0.5000000000000000  0.0000000000000000 -0.0000000000000000
  0.0000000000000000  0.5000000000000000  0.5000000000000000
  0.0000000000000000  0.5000000000000000 -0.0000000000000000
  0.5000000000000000 -0.0000000000000000  0.5000000000000000
 
  0.00000000E+00  0.00000000E+00  0.00000000E+00
  0.00000000E+00  0.00000000E+00  0.00000000E+00
  0.00000000E+00  0.00000000E+00  0.00000000E+00
  0.00000000E+00  0.00000000E+00  0.00000000E+00
  0.00000000E+00  0.00000000E+00  0.00000000E+00
  0.00000000E+00  0.00000000E+00  0.00000000E+00
  0.00000000E+00  0.00000000E+00  0.00000000E+00
  0.00000000E+00  0.00000000E+00  0.00000000E+00
  0.00000000E+00  0.00000000E+00  0.00000000E+00
  0.00000000E+00  0.00000000E+00  0.00000000E+00
  0.00000000E+00  0.00000000E+00  0.00000000E+00
  0.00000000E+00  0.00000000E+00  0.00000000E+00
  0.00000000E+00  0.00000000E+00  0.00000000E+00
  0.00000000E+00  0.00000000E+00  0.00000000E+00
  0.00000000E+00  0.00000000E+00  0.00000000E+00
  0.00000000E+00  0.00000000E+00  0.00000000E+00
  0.00000000E+00  0.00000000E+00  0.00000000E+00
  0.00000000E+00  0.00000000E+00  0.00000000E+00
  0.00000000E+00  0.00000000E+00  0.00000000E+00
  0.00000000E+00  0.00000000E+00  0.00000000E+00
  0.00000000E+00  0.00000000E+00  0.00000000E+00
  0.00000000E+00  0.00000000E+00  0.00000000E+00
