Co2O7Sb2   [FCC,FCC,cF88] (STD_PRIM doi:
   1.22474500000000     
    -0.0000000000000000    4.1504526813457217    4.1504526813457217
     4.1504526813457217   -0.0000000000000000    4.1504526813457217
     4.1504526813457217    4.1504526813457217   -0.0000000000000000
   4  14   4
Direct
  0.5000000000000000  0.5000000000000000  0.5000000000000000
  0.0000000000000000  0.5000000000000000 -0.0000000000000000
  0.5000000000000000 -0.0000000000000000  0.0000000000000000
  0.5000000000000000  0.5000000000000000 -0.0000000000000000
  0.3311060715948747  0.3311060715948747  0.4188939284051253
  0.9188939284051254  0.9188939284051254  0.8311060715948746
  0.3311060715948747  0.9188939284051254  0.4188939284051253
  0.9188939284051254  0.3311060715948747  0.8311060715948746
  0.9188939284051254  0.3311060715948747  0.4188939284051253
  0.3311060715948747  0.9188939284051254  0.8311060715948746
  0.0811060715948747  0.6688939284051254  0.1688939284051253
  0.6688939284051254  0.0811060715948747  0.5811060715948746
  0.0811060715948747  0.0811060715948747  0.1688939284051253
  0.6688939284051254  0.6688939284051254  0.5811060715948746
  0.0811060715948747  0.6688939284051254  0.5811060715948746
  0.6688939284051254  0.0811060715948747  0.1688939284051253
  0.3750000000000000  0.3750000000000000  0.8750000000000000
  0.6250000000000000  0.6250000000000000  0.1250000000000000
 -0.0000000000000000  0.0000000000000000 -0.0000000000000000
  0.5000000000000000 -0.0000000000000000  0.5000000000000000
  0.0000000000000000  0.5000000000000000  0.5000000000000000
  0.0000000000000000  0.0000000000000000  0.5000000000000000
 
  0.00000000E+00  0.00000000E+00  0.00000000E+00
  0.00000000E+00  0.00000000E+00  0.00000000E+00
  0.00000000E+00  0.00000000E+00  0.00000000E+00
  0.00000000E+00  0.00000000E+00  0.00000000E+00
  0.00000000E+00  0.00000000E+00  0.00000000E+00
  0.00000000E+00  0.00000000E+00  0.00000000E+00
  0.00000000E+00  0.00000000E+00  0.00000000E+00
  0.00000000E+00  0.00000000E+00  0.00000000E+00
  0.00000000E+00  0.00000000E+00  0.00000000E+00
  0.00000000E+00  0.00000000E+00  0.00000000E+00
  0.00000000E+00  0.00000000E+00  0.00000000E+00
  0.00000000E+00  0.00000000E+00  0.00000000E+00
  0.00000000E+00  0.00000000E+00  0.00000000E+00
  0.00000000E+00  0.00000000E+00  0.00000000E+00
  0.00000000E+00  0.00000000E+00  0.00000000E+00
  0.00000000E+00  0.00000000E+00  0.00000000E+00
  0.00000000E+00  0.00000000E+00  0.00000000E+00
  0.00000000E+00  0.00000000E+00  0.00000000E+00
  0.00000000E+00  0.00000000E+00  0.00000000E+00
  0.00000000E+00  0.00000000E+00  0.00000000E+00
  0.00000000E+00  0.00000000E+00  0.00000000E+00
  0.00000000E+00  0.00000000E+00  0.00000000E+00
