Bi1Co1O3   [TET,TET,tP5] (STD_PRIM doi:1
   1.00000000000000     
     3.7701363548908073    0.0000000000000000    0.0000000000000000
     0.0000000000000000    3.7701363548908073    0.0000000000000000
     0.0000000000000000    0.0000000000000000    4.8669039347063885
   1   1   3
Direct
  0.0000000000000000 -0.0000000000000000  0.9921457061785569
  0.5000000000000000  0.5000000000000000  0.5693945918280967
  0.5000000000000000  0.5000000000000000  0.2113750817855476
  0.5000000000000000  0.0000000000000000  0.7277923101039050
  0.0000000000000000  0.5000000000000000  0.7277923101039050
 
  0.00000000E+00  0.00000000E+00  0.00000000E+00
  0.00000000E+00  0.00000000E+00  0.00000000E+00
  0.00000000E+00  0.00000000E+00  0.00000000E+00
  0.00000000E+00  0.00000000E+00  0.00000000E+00
  0.00000000E+00  0.00000000E+00  0.00000000E+00
