Ca3H2Pb1   [ORCC,ORCC,oS24] (STD_PRIM do
   1.00000000000000     
     4.4557694260881959   -5.7155711352188394    0.0000000000000000
     4.4557694260881959    5.7155711352188394    0.0000000000000000
     0.0000000000000000    0.0000000000000000    5.3064909879133602
   6   4   2
Direct
  0.8915382337663892  0.1084617662336109  0.7500000000000000
  0.1084617662336109  0.8915382337663892  0.2500000000000000
  0.4064131643814443  0.1853289820919585  0.7500000000000000
  0.5935868356185556  0.8146710179080415  0.2500000000000000
  0.8146710179080415  0.5935868356185556  0.7500000000000000
  0.1853289820919585  0.4064131643814443  0.2500000000000000
  0.8490763537698212  0.8490763537698212  0.0000000000000000
  0.1509236462301788  0.1509236462301788  0.5000000000000000
  0.1509236462301788  0.1509236462301788  0.0000000000000000
  0.8490763537698212  0.8490763537698212  0.5000000000000000
  0.3081690972936324  0.6918309027063677  0.7500000000000000
  0.6918309027063677  0.3081690972936324  0.2500000000000000
 
  0.00000000E+00  0.00000000E+00  0.00000000E+00
  0.00000000E+00  0.00000000E+00  0.00000000E+00
  0.00000000E+00  0.00000000E+00  0.00000000E+00
  0.00000000E+00  0.00000000E+00  0.00000000E+00
  0.00000000E+00  0.00000000E+00  0.00000000E+00
  0.00000000E+00  0.00000000E+00  0.00000000E+00
  0.00000000E+00  0.00000000E+00  0.00000000E+00
  0.00000000E+00  0.00000000E+00  0.00000000E+00
  0.00000000E+00  0.00000000E+00  0.00000000E+00
  0.00000000E+00  0.00000000E+00  0.00000000E+00
  0.00000000E+00  0.00000000E+00  0.00000000E+00
  0.00000000E+00  0.00000000E+00  0.00000000E+00
