B2Hf3Ir5   [TET,TET,tP20] (STD_PRIM doi:
   1.00000000000000     
     9.2520200675069653    0.0000000000000000    0.0000000000000000
     0.0000000000000000    9.2520200675069653    0.0000000000000000
     0.0000000000000000    0.0000000000000000    3.3582870332348391
   4   6  10
Direct
  0.1191104547755807  0.6191104547755806  0.0000000000000000
  0.8808895452244194  0.3808895452244193 -0.0000000000000000
  0.3808895452244193  0.1191104547755807  0.0000000000000000
  0.6191104547755806  0.8808895452244194 -0.0000000000000000
  0.0000000000000000  0.0000000000000000  0.0000000000000000
  0.5000000000000000  0.5000000000000000  0.0000000000000000
  0.3242519141484844  0.8242519141484844  0.0000000000000000
  0.6757480858515156  0.1757480858515156  0.0000000000000000
  0.1757480858515156  0.3242519141484844  0.0000000000000000
  0.8242519141484844  0.6757480858515156 -0.0000000000000000
  0.0000000000000000  0.5000000000000000  0.5000000000000000
  0.5000000000000000  0.0000000000000000  0.5000000000000000
  0.2203877427086350  0.0724916639400305  0.5000000000000000
  0.7796122572913651  0.9275083360599695  0.5000000000000000
  0.9275083360599695  0.2203877427086350  0.5000000000000000
  0.0724916639400305  0.7796122572913651  0.5000000000000000
  0.2796122572913650  0.5724916639400305  0.5000000000000000
  0.7203877427086349  0.4275083360599695  0.5000000000000000
  0.5724916639400305  0.7203877427086349  0.5000000000000000
  0.4275083360599695  0.2796122572913650  0.5000000000000000
 
  0.00000000E+00  0.00000000E+00  0.00000000E+00
  0.00000000E+00  0.00000000E+00  0.00000000E+00
  0.00000000E+00  0.00000000E+00  0.00000000E+00
  0.00000000E+00  0.00000000E+00  0.00000000E+00
  0.00000000E+00  0.00000000E+00  0.00000000E+00
  0.00000000E+00  0.00000000E+00  0.00000000E+00
  0.00000000E+00  0.00000000E+00  0.00000000E+00
  0.00000000E+00  0.00000000E+00  0.00000000E+00
  0.00000000E+00  0.00000000E+00  0.00000000E+00
  0.00000000E+00  0.00000000E+00  0.00000000E+00
  0.00000000E+00  0.00000000E+00  0.00000000E+00
  0.00000000E+00  0.00000000E+00  0.00000000E+00
  0.00000000E+00  0.00000000E+00  0.00000000E+00
  0.00000000E+00  0.00000000E+00  0.00000000E+00
  0.00000000E+00  0.00000000E+00  0.00000000E+00
  0.00000000E+00  0.00000000E+00  0.00000000E+00
  0.00000000E+00  0.00000000E+00  0.00000000E+00
  0.00000000E+00  0.00000000E+00  0.00000000E+00
  0.00000000E+00  0.00000000E+00  0.00000000E+00
  0.00000000E+00  0.00000000E+00  0.00000000E+00
