Br1Eu1I1   [ORC,ORC,oP12] (STD_PRIM doi:
   1.00000000000000     
     4.8320144629900774   -0.0000000000000000    0.0000000000000000
     0.0000000000000000    8.4951204338202828    0.0000000000000000
     0.0000000000000000    0.0000000000000000    9.8000151081695712
   4   4   4
Direct
  0.2500000000000000  0.6446692441417836  0.4353233302370285
  0.7500000000000000  0.8553307558582164  0.9353233302370285
  0.7500000000000000  0.3553307558582166  0.5646766697629715
  0.2500000000000000  0.1446692441417834  0.0646766697629716
  0.7500000000000000  0.7260644337865837  0.6276699660094779
  0.2500000000000000  0.7739355662134163  0.1276699660094780
  0.2500000000000000  0.2739355662134164  0.3723300339905221
  0.7500000000000000  0.2260644337865836  0.8723300339905221
  0.2500000000000000  0.0266143590304964  0.6669567529218311
  0.7500000000000000  0.4733856409695036  0.1669567529218310
  0.7500000000000000  0.9733856409695036  0.3330432470781690
  0.2500000000000000  0.5266143590304964  0.8330432470781689
 
  0.00000000E+00  0.00000000E+00  0.00000000E+00
  0.00000000E+00  0.00000000E+00  0.00000000E+00
  0.00000000E+00  0.00000000E+00  0.00000000E+00
  0.00000000E+00  0.00000000E+00  0.00000000E+00
  0.00000000E+00  0.00000000E+00  0.00000000E+00
  0.00000000E+00  0.00000000E+00  0.00000000E+00
  0.00000000E+00  0.00000000E+00  0.00000000E+00
  0.00000000E+00  0.00000000E+00  0.00000000E+00
  0.00000000E+00  0.00000000E+00  0.00000000E+00
  0.00000000E+00  0.00000000E+00  0.00000000E+00
  0.00000000E+00  0.00000000E+00  0.00000000E+00
  0.00000000E+00  0.00000000E+00  0.00000000E+00
