Mg3Nb6O11   [HEX,HEX,hP20] (STD_PRIM doi
   1.00000000000000     
     3.0508449885233144   -5.2844496611649756   -0.0000064119273171
     3.0508449885233144    5.2844496611649756    0.0000064119273171
     0.0000000000000000    0.0000091056614848    7.5424291549740667
   3   6  11
Direct
 -0.0000000000000000 -0.0000000000000000  0.5000000000000000
  0.6666816620570739  0.3333183379429332  0.4238911548629243
  0.3333183379429332  0.6666816620570739  0.5761088451370756
  0.1546072785404153  0.8453927214595848  0.1529275500393151
  0.1546144324603074  0.3092257803943413  0.1529292434589355
  0.6907742196056588  0.8453855675396926  0.1529292434589355
  0.8453927214595848  0.1546072785404153  0.8470724499606850
  0.3092257803943413  0.1546144324603074  0.8470707565410645
  0.8453855675396926  0.6907742196056588  0.8470707565410645
  0.5000000000000000  0.5000000000000000 -0.0000000000000000
  0.5000000000000000  0.0000000000000000 -0.0000000000000000
 -0.0000000000000000  0.5000000000000000 -0.0000000000000000
  0.8439004417345354  0.1560995582654646  0.3265539715389321
  0.8438901527695339  0.6877847774436663  0.3265547991261106
  0.3122152225563338  0.1561098472304661  0.3265547991261106
  0.1560995582654646  0.8439004417345354  0.6734460284610678
  0.6877847774436663  0.8438901527695339  0.6734452008738895
  0.1561098472304661  0.3122152225563338  0.6734452008738895
  0.3333127860140727  0.6666872139859273  0.3119062944613709
  0.6666872139859273  0.3333127860140727  0.6880937055386291
 
  0.00000000E+00  0.00000000E+00  0.00000000E+00
  0.00000000E+00  0.00000000E+00  0.00000000E+00
  0.00000000E+00  0.00000000E+00  0.00000000E+00
  0.00000000E+00  0.00000000E+00  0.00000000E+00
  0.00000000E+00  0.00000000E+00  0.00000000E+00
  0.00000000E+00  0.00000000E+00  0.00000000E+00
  0.00000000E+00  0.00000000E+00  0.00000000E+00
  0.00000000E+00  0.00000000E+00  0.00000000E+00
  0.00000000E+00  0.00000000E+00  0.00000000E+00
  0.00000000E+00  0.00000000E+00  0.00000000E+00
  0.00000000E+00  0.00000000E+00  0.00000000E+00
  0.00000000E+00  0.00000000E+00  0.00000000E+00
  0.00000000E+00  0.00000000E+00  0.00000000E+00
  0.00000000E+00  0.00000000E+00  0.00000000E+00
  0.00000000E+00  0.00000000E+00  0.00000000E+00
  0.00000000E+00  0.00000000E+00  0.00000000E+00
  0.00000000E+00  0.00000000E+00  0.00000000E+00
  0.00000000E+00  0.00000000E+00  0.00000000E+00
  0.00000000E+00  0.00000000E+00  0.00000000E+00
  0.00000000E+00  0.00000000E+00  0.00000000E+00
