Sc1   [HEX,HEX,hP2] (STD_PRIM doi:10.101
   1.00000000000000     
     1.6803273652124038   -2.9104123698962296    0.0000000000000000
     1.6801857567531293    2.9103306122141483    0.0000000000000000
     0.0000000000000000    0.0000000000000000    5.4253980604263967
   2
Direct
  0.6666876738197320  0.3333753476394710  0.2500000000000000
  0.3333123261802680  0.6666246523605289  0.7500000000000000
 
  0.00000000E+00  0.00000000E+00  0.00000000E+00
  0.00000000E+00  0.00000000E+00  0.00000000E+00
