Cs2Te1   [ORC,ORC,oP12] (STD_PRIM doi:10
   1.00000000000000     
     5.8680587646298230    0.0000000000000000    0.0000000000000000
     0.0000000000000000    9.5905422427988967    0.0000000000000000
     0.0000000000000000    0.0000000000000000   11.6234486782740358
   8   4
Direct
  0.2500000000000000  0.0265394962248711  0.8279865426113658
  0.7500000000000000  0.4734605037751289  0.3279865426113658
  0.7500000000000000  0.9734605037751289  0.1720134573886341
  0.2500000000000000  0.5265394962248711  0.6720134573886342
  0.2500000000000000  0.1460548163430885  0.4259056972676818
  0.7500000000000000  0.3539451836569116  0.9259056972676819
  0.7500000000000000  0.8539451836569115  0.5740943027323181
  0.2500000000000000  0.6460548163430885  0.0740943027323182
  0.2500000000000000  0.2468553865697214  0.1125397775899233
  0.7500000000000000  0.2531446134302787  0.6125397775899233
  0.7500000000000000  0.7531446134302786  0.8874602224100767
  0.2500000000000000  0.7468553865697214  0.3874602224100767
 
  0.00000000E+00  0.00000000E+00  0.00000000E+00
  0.00000000E+00  0.00000000E+00  0.00000000E+00
  0.00000000E+00  0.00000000E+00  0.00000000E+00
  0.00000000E+00  0.00000000E+00  0.00000000E+00
  0.00000000E+00  0.00000000E+00  0.00000000E+00
  0.00000000E+00  0.00000000E+00  0.00000000E+00
  0.00000000E+00  0.00000000E+00  0.00000000E+00
  0.00000000E+00  0.00000000E+00  0.00000000E+00
  0.00000000E+00  0.00000000E+00  0.00000000E+00
  0.00000000E+00  0.00000000E+00  0.00000000E+00
  0.00000000E+00  0.00000000E+00  0.00000000E+00
  0.00000000E+00  0.00000000E+00  0.00000000E+00
