Al20La1V2   [FCC,FCC,cF184] (STD_PRIM do
   1.22474500000000     
     0.0000000000000000    5.9716514126006013    5.9716514126006013
     5.9716514126006013   -0.0000000000000000    5.9716514126006013
     5.9716514126006013    5.9716514126006013   -0.0000000000000000
  40   2   4
Direct
  0.7369613351811745  0.2369613351811745  0.5130386648188255
  0.0130386648188255  0.5130386648188255  0.2369613351811745
  0.7369613351811745  0.5130386648188255  0.2369613351811745
  0.0130386648188255  0.2369613351811745  0.5130386648188255
  0.7369613351811745  0.5130386648188255  0.5130386648188255
  0.0130386648188255  0.2369613351811745  0.2369613351811745
  0.9869613351811745  0.7630386648188255  0.4869613351811745
  0.2630386648188255  0.4869613351811745  0.7630386648188255
  0.9869613351811745  0.4869613351811745  0.7630386648188255
  0.2630386648188255  0.7630386648188255  0.4869613351811745
  0.2630386648188255  0.4869613351811745  0.4869613351811745
  0.9869613351811745  0.7630386648188255  0.7630386648188255
  0.4435309597635329  0.6735507103267414  0.6735507103267414
  0.7093676195829844  0.6735507103267414  0.6735507103267414
  0.1735507103267414  0.2093676195829844  0.9435309597635329
  0.1735507103267414  0.9435309597635329  0.2093676195829844
  0.4435309597635329  0.2093676195829844  0.6735507103267414
  0.7093676195829844  0.9435309597635329  0.6735507103267414
  0.1735507103267414  0.6735507103267414  0.2093676195829844
  0.1735507103267414  0.6735507103267414  0.9435309597635329
  0.4435309597635329  0.6735507103267414  0.2093676195829844
  0.7093676195829844  0.6735507103267414  0.9435309597635329
  0.1735507103267414  0.9435309597635329  0.6735507103267414
  0.1735507103267414  0.2093676195829844  0.6735507103267414
  0.2906323804170156  0.3264492896732586  0.3264492896732586
  0.5564690402364671  0.3264492896732586  0.3264492896732586
  0.8264492896732586  0.7906323804170156  0.0564690402364671
  0.8264492896732586  0.0564690402364671  0.7906323804170156
  0.8264492896732586  0.7906323804170156  0.3264492896732586
  0.8264492896732586  0.0564690402364671  0.3264492896732586
  0.5564690402364671  0.3264492896732586  0.7906323804170156
  0.2906323804170156  0.3264492896732586  0.0564690402364671
  0.8264492896732586  0.3264492896732586  0.7906323804170156
  0.8264492896732586  0.3264492896732586  0.0564690402364671
  0.2906323804170156  0.0564690402364671  0.3264492896732586
  0.5564690402364671  0.7906323804170156  0.3264492896732586
  0.0000000000000000  0.0000000000000000  0.0000000000000000
  0.5000000000000000 -0.0000000000000000  0.0000000000000000
  0.5000000000000000 -0.0000000000000000  0.5000000000000000
  0.5000000000000000  0.5000000000000000  0.0000000000000000
  0.3750000000000000  0.8750000000000000  0.8750000000000000
  0.6250000000000000  0.1250000000000000  0.1250000000000000
  0.5000000000000000  0.5000000000000000  0.5000000000000000
  0.0000000000000000  0.5000000000000000  0.5000000000000000
 -0.0000000000000000  0.5000000000000000  0.0000000000000000
  0.0000000000000000  0.0000000000000000  0.5000000000000000
 
  0.00000000E+00  0.00000000E+00  0.00000000E+00
  0.00000000E+00  0.00000000E+00  0.00000000E+00
  0.00000000E+00  0.00000000E+00  0.00000000E+00
  0.00000000E+00  0.00000000E+00  0.00000000E+00
  0.00000000E+00  0.00000000E+00  0.00000000E+00
  0.00000000E+00  0.00000000E+00  0.00000000E+00
  0.00000000E+00  0.00000000E+00  0.00000000E+00
  0.00000000E+00  0.00000000E+00  0.00000000E+00
  0.00000000E+00  0.00000000E+00  0.00000000E+00
  0.00000000E+00  0.00000000E+00  0.00000000E+00
  0.00000000E+00  0.00000000E+00  0.00000000E+00
  0.00000000E+00  0.00000000E+00  0.00000000E+00
  0.00000000E+00  0.00000000E+00  0.00000000E+00
  0.00000000E+00  0.00000000E+00  0.00000000E+00
  0.00000000E+00  0.00000000E+00  0.00000000E+00
  0.00000000E+00  0.00000000E+00  0.00000000E+00
  0.00000000E+00  0.00000000E+00  0.00000000E+00
  0.00000000E+00  0.00000000E+00  0.00000000E+00
  0.00000000E+00  0.00000000E+00  0.00000000E+00
  0.00000000E+00  0.00000000E+00  0.00000000E+00
  0.00000000E+00  0.00000000E+00  0.00000000E+00
  0.00000000E+00  0.00000000E+00  0.00000000E+00
  0.00000000E+00  0.00000000E+00  0.00000000E+00
  0.00000000E+00  0.00000000E+00  0.00000000E+00
  0.00000000E+00  0.00000000E+00  0.00000000E+00
  0.00000000E+00  0.00000000E+00  0.00000000E+00
  0.00000000E+00  0.00000000E+00  0.00000000E+00
  0.00000000E+00  0.00000000E+00  0.00000000E+00
  0.00000000E+00  0.00000000E+00  0.00000000E+00
  0.00000000E+00  0.00000000E+00  0.00000000E+00
  0.00000000E+00  0.00000000E+00  0.00000000E+00
  0.00000000E+00  0.00000000E+00  0.00000000E+00
  0.00000000E+00  0.00000000E+00  0.00000000E+00
  0.00000000E+00  0.00000000E+00  0.00000000E+00
  0.00000000E+00  0.00000000E+00  0.00000000E+00
  0.00000000E+00  0.00000000E+00  0.00000000E+00
  0.00000000E+00  0.00000000E+00  0.00000000E+00
  0.00000000E+00  0.00000000E+00  0.00000000E+00
  0.00000000E+00  0.00000000E+00  0.00000000E+00
  0.00000000E+00  0.00000000E+00  0.00000000E+00
  0.00000000E+00  0.00000000E+00  0.00000000E+00
  0.00000000E+00  0.00000000E+00  0.00000000E+00
  0.00000000E+00  0.00000000E+00  0.00000000E+00
  0.00000000E+00  0.00000000E+00  0.00000000E+00
  0.00000000E+00  0.00000000E+00  0.00000000E+00
  0.00000000E+00  0.00000000E+00  0.00000000E+00
