As1Hf1Ru1 #189 - (As1Hf1Ru1_ICSD_610654)
   1.00000000000000     
     3.2938449550376219   -5.7061500853875717    0.0000000000000000
     3.2938449550376219    5.7061500853875717    0.0000000000000000
     0.0000000000000000    0.0000000000000000    3.8987306972691855
   3   3   3
Direct
  0.3333393251963737  0.6666736054249266  0.0000000000000000
  0.6666736054249266  0.3333393251963737  0.0000000000000000
  0.9999821073356294  0.9999821073356294  0.5000000000000000
  0.5821480046651371 -0.0000022766126856  0.5000000000000000
 -0.0000022766126856  0.5821480046651371  0.5000000000000000
  0.4178960693776285  0.4178960693776285  0.5000000000000000
  0.2463171599441131  0.0000026071079228  0.0000000000000000
  0.0000026071079228  0.2463171599441131  0.0000000000000000
  0.7536433975609473  0.7536433975609473  0.0000000000000000
 
  0.00000000E+00  0.00000000E+00  0.00000000E+00
  0.00000000E+00  0.00000000E+00  0.00000000E+00
  0.00000000E+00  0.00000000E+00  0.00000000E+00
  0.00000000E+00  0.00000000E+00  0.00000000E+00
  0.00000000E+00  0.00000000E+00  0.00000000E+00
  0.00000000E+00  0.00000000E+00  0.00000000E+00
  0.00000000E+00  0.00000000E+00  0.00000000E+00
  0.00000000E+00  0.00000000E+00  0.00000000E+00
  0.00000000E+00  0.00000000E+00  0.00000000E+00
