Al3Mo1   [MCLC,MCLC1,mS32] (STD_PRIM doi
   1.00000000000000     
     1.8051649985441549    8.2464515102016076   -0.0054963687575753
    -1.8051649985441549    8.2464515102016076   -0.0054963687575753
     0.0000000000000000    1.7310401638071271    8.2397330918035561
  12   4
Direct
  0.3720830883800472  0.3720830883800472  0.2448388208081054
  0.8718536305448984  0.8718536305448984  0.5032503685499731
  0.3772678989459162  0.3772678989459162  0.7401553555679684
  0.2499691203193611  0.2499691203193611  0.0458604534141765
  0.7486584076118126  0.7486584076118126  0.3051127504444862
  0.7498054164323888  0.7498054164323888  0.7944518762733835
  0.1263978132862597  0.1263978132862597  0.3435388911814872
  0.6249688875488384  0.6249688875488384  0.6035019919861122
  0.1251796003107903  0.1251796003107903  0.8539960618433960
  0.0033391224072351  0.0033391224072351  0.1433904858679680
  0.5032505887937606  0.5032505887937606  0.4019647303203520
  0.4973345580051363  0.4973345580051363  0.9065119481292947
  0.8641913671310344  0.8641913671310344  0.0030315309457432
  0.2421828232952485  0.2421828232952485  0.5525440479854612
  0.6328078523742939  0.6328078523742939  0.0956996324867851
  0.0107098246129784  0.0107098246129784  0.6443510541953161
 
  0.00000000E+00  0.00000000E+00  0.00000000E+00
  0.00000000E+00  0.00000000E+00  0.00000000E+00
  0.00000000E+00  0.00000000E+00  0.00000000E+00
  0.00000000E+00  0.00000000E+00  0.00000000E+00
  0.00000000E+00  0.00000000E+00  0.00000000E+00
  0.00000000E+00  0.00000000E+00  0.00000000E+00
  0.00000000E+00  0.00000000E+00  0.00000000E+00
  0.00000000E+00  0.00000000E+00  0.00000000E+00
  0.00000000E+00  0.00000000E+00  0.00000000E+00
  0.00000000E+00  0.00000000E+00  0.00000000E+00
  0.00000000E+00  0.00000000E+00  0.00000000E+00
  0.00000000E+00  0.00000000E+00  0.00000000E+00
  0.00000000E+00  0.00000000E+00  0.00000000E+00
  0.00000000E+00  0.00000000E+00  0.00000000E+00
  0.00000000E+00  0.00000000E+00  0.00000000E+00
  0.00000000E+00  0.00000000E+00  0.00000000E+00
