Ge1Mn1   [CUB,CUB,cP8] (STD_PRIM doi:10.
   1.00000000000000     
     5.2345945609441182   -0.0000000000000000   -0.0000000000000000
     0.0000000000000000    5.2345945609441182   -0.0000000000000000
    -0.0000000000000000   -0.0000000000000000    5.2345945609441182
   4   4
Direct
  0.8447440201711589  0.8447440201711589  0.8447440201711589
  0.6552559798288411  0.1552559798288412  0.3447440201711588
  0.1552559798288412  0.3447440201711588  0.6552559798288411
  0.3447440201711588  0.6552559798288411  0.1552559798288412
  0.1466536367115231  0.1466536367115231  0.1466536367115231
  0.3533463632884769  0.8533463632884768  0.6466536367115232
  0.8533463632884768  0.6466536367115232  0.3533463632884769
  0.6466536367115232  0.3533463632884769  0.8533463632884768
 
  0.00000000E+00  0.00000000E+00  0.00000000E+00
  0.00000000E+00  0.00000000E+00  0.00000000E+00
  0.00000000E+00  0.00000000E+00  0.00000000E+00
  0.00000000E+00  0.00000000E+00  0.00000000E+00
  0.00000000E+00  0.00000000E+00  0.00000000E+00
  0.00000000E+00  0.00000000E+00  0.00000000E+00
  0.00000000E+00  0.00000000E+00  0.00000000E+00
  0.00000000E+00  0.00000000E+00  0.00000000E+00
