Al9Co2Sr1   [HEX,HEX,hP12] (STD_PRIM doi
   1.00000000000000     
     3.9268489740143075   -6.8015019366425005    0.0000000000000000
     3.9268496277520817    6.8015023140781787    0.0000000000000000
     0.0000000000000000    0.0000000000000000    3.8779199987134096
   9   2   1
Direct
  0.0000000000000000  0.5000000000000000  0.0000000000000000
  0.5000000000000000  0.5000000000000000  0.0000000000000000
  0.5000000000000000 -0.0000000000000000  0.0000000000000000
  0.4285112530594213  0.2142548172803809  0.5000000000000000
  0.7857435642209525  0.2142548172803809  0.5000000000000000
  0.7857479446213449  0.5714958892427038  0.5000000000000000
  0.5714887469405787  0.7857451827196190  0.5000000000000000
  0.2142564357790474  0.7857451827196190  0.5000000000000000
  0.2142520553786552  0.4285041107572962  0.5000000000000000
  0.6666666726427423  0.3333333452854845  0.0000000000000000
  0.3333333273572578  0.6666666547145156  0.0000000000000000
 -0.0000000000000000 -0.0000000000000000  0.0000000000000000
 
  0.00000000E+00  0.00000000E+00  0.00000000E+00
  0.00000000E+00  0.00000000E+00  0.00000000E+00
  0.00000000E+00  0.00000000E+00  0.00000000E+00
  0.00000000E+00  0.00000000E+00  0.00000000E+00
  0.00000000E+00  0.00000000E+00  0.00000000E+00
  0.00000000E+00  0.00000000E+00  0.00000000E+00
  0.00000000E+00  0.00000000E+00  0.00000000E+00
  0.00000000E+00  0.00000000E+00  0.00000000E+00
  0.00000000E+00  0.00000000E+00  0.00000000E+00
  0.00000000E+00  0.00000000E+00  0.00000000E+00
  0.00000000E+00  0.00000000E+00  0.00000000E+00
  0.00000000E+00  0.00000000E+00  0.00000000E+00
