Co1Nb4Si1   [TET,TET,tP12] (STD_PRIM doi
   1.00000000000000     
     6.2050303000936617    0.0000000000000000    0.0000000000000000
     0.0000000000000000    6.2050303000936617    0.0000000000000000
    -0.0000000000000000    0.0000000000000000    5.0510689006920400
   2   8   2
Direct
 -0.0000000000000000 -0.0000000000000000  0.2500000000000000
 -0.0000000000000000  0.0000000000000000  0.7500000000000000
  0.1513671898979835  0.6690943394468996 -0.0000000000000000
  0.8486328101020165  0.3309056605531004  0.0000000000000000
  0.3309056605531004  0.1513671898979835  0.0000000000000000
  0.6690943394468996  0.8486328101020165 -0.0000000000000000
  0.8486328101020165  0.6690943394468996  0.5000000000000000
  0.1513671898979835  0.3309056605531004  0.5000000000000000
  0.6690943394468996  0.1513671898979835  0.5000000000000000
  0.3309056605531004  0.8486328101020165  0.5000000000000000
  0.5000000000000000  0.5000000000000000  0.2500000000000000
  0.5000000000000000  0.5000000000000000  0.7500000000000000
 
  0.00000000E+00  0.00000000E+00  0.00000000E+00
  0.00000000E+00  0.00000000E+00  0.00000000E+00
  0.00000000E+00  0.00000000E+00  0.00000000E+00
  0.00000000E+00  0.00000000E+00  0.00000000E+00
  0.00000000E+00  0.00000000E+00  0.00000000E+00
  0.00000000E+00  0.00000000E+00  0.00000000E+00
  0.00000000E+00  0.00000000E+00  0.00000000E+00
  0.00000000E+00  0.00000000E+00  0.00000000E+00
  0.00000000E+00  0.00000000E+00  0.00000000E+00
  0.00000000E+00  0.00000000E+00  0.00000000E+00
  0.00000000E+00  0.00000000E+00  0.00000000E+00
  0.00000000E+00  0.00000000E+00  0.00000000E+00
