Pt3Th7 #186 - (Pt3Th7_ICSD_150671) - Pt3
   1.00000000000000     
     5.1941751893157582   -8.9965639693373287   -0.0000000000000000
     5.1941751893157582    8.9965639693373287   -0.0000000000000000
     0.0000000000000000    0.0000000000000000    6.5729006615593280
   6  14
Direct
  0.8115684782749827  0.1884315217250173  0.0630156840787904
  0.8115678237686454  0.6231345019259698  0.0630172695298781
  0.3768654980740302  0.1884321762313545  0.0630172695298781
  0.1884315217250173  0.8115684782749827  0.5630156840787904
  0.1884321762313545  0.3768654980740302  0.5630172695298782
  0.6231345019259698  0.8115678237686454  0.5630172695298782
  0.3333321653956958  0.6666678346043042  0.8287314421740489
  0.6666678346043042  0.3333321653956958  0.3287314421740490
  0.1270614368774047  0.8729385631225953  0.9903645294829403
  0.1270633732983934  0.2541249259930135  0.9903655278760169
  0.7458750740069866  0.8729366267016065  0.9903655278760169
  0.8729385631225953  0.1270614368774047  0.4903645294829404
  0.8729366267016065  0.7458750740069866  0.4903655278760171
  0.2541249259930135  0.1270633732983934  0.4903655278760171
  0.5440739971656136  0.4559260028343864  0.7843741707172655
  0.5440744770236116  0.0881465124240178  0.7843742893675781
  0.9118534875759822  0.4559255229763885  0.7843742893675781
  0.4559260028343864  0.5440739971656136  0.2843741707172654
  0.4559255229763885  0.9118534875759822  0.2843742893675781
  0.0881465124240178  0.5440744770236116  0.2843742893675781
 
  0.00000000E+00  0.00000000E+00  0.00000000E+00
  0.00000000E+00  0.00000000E+00  0.00000000E+00
  0.00000000E+00  0.00000000E+00  0.00000000E+00
  0.00000000E+00  0.00000000E+00  0.00000000E+00
  0.00000000E+00  0.00000000E+00  0.00000000E+00
  0.00000000E+00  0.00000000E+00  0.00000000E+00
  0.00000000E+00  0.00000000E+00  0.00000000E+00
  0.00000000E+00  0.00000000E+00  0.00000000E+00
  0.00000000E+00  0.00000000E+00  0.00000000E+00
  0.00000000E+00  0.00000000E+00  0.00000000E+00
  0.00000000E+00  0.00000000E+00  0.00000000E+00
  0.00000000E+00  0.00000000E+00  0.00000000E+00
  0.00000000E+00  0.00000000E+00  0.00000000E+00
  0.00000000E+00  0.00000000E+00  0.00000000E+00
  0.00000000E+00  0.00000000E+00  0.00000000E+00
  0.00000000E+00  0.00000000E+00  0.00000000E+00
  0.00000000E+00  0.00000000E+00  0.00000000E+00
  0.00000000E+00  0.00000000E+00  0.00000000E+00
  0.00000000E+00  0.00000000E+00  0.00000000E+00
  0.00000000E+00  0.00000000E+00  0.00000000E+00
