Er1Pt1Sn1 #189 - (Er1Pt1Sn1_ICSD_630991)
   1.00000000000000     
     3.7663853644243854   -6.5235646985118292    0.0000000000000000
     3.7663853644243854    6.5235646985118292    0.0000000000000000
     0.0000000000000000    0.0000000000000000    3.9683072967481565
   3   3   3
Direct
  0.5954483827283470  0.0000005277245806  0.5000000000000000
  0.0000005277245806  0.5954483827283470  0.5000000000000000
  0.4045528578887991  0.4045528578887991  0.5000000000000000
  0.3333266009827531  0.6666742266578954  0.0000000000000000
  0.6666742266578954  0.3333266009827531  0.0000000000000000
  0.9999962875452940  0.9999962875452940  0.5000000000000000
  0.2609828625677048  0.0000035341858924  0.0000000000000000
  0.0000035341858924  0.2609828625677048  0.0000000000000000
  0.7390147197187265  0.7390147197187265  0.0000000000000000
 
  0.00000000E+00  0.00000000E+00  0.00000000E+00
  0.00000000E+00  0.00000000E+00  0.00000000E+00
  0.00000000E+00  0.00000000E+00  0.00000000E+00
  0.00000000E+00  0.00000000E+00  0.00000000E+00
  0.00000000E+00  0.00000000E+00  0.00000000E+00
  0.00000000E+00  0.00000000E+00  0.00000000E+00
  0.00000000E+00  0.00000000E+00  0.00000000E+00
  0.00000000E+00  0.00000000E+00  0.00000000E+00
  0.00000000E+00  0.00000000E+00  0.00000000E+00
