Na3S3Sb1   [CUB,CUB,cP28] (STD_PRIM doi:
   1.00000000000000     
     8.7087935508031880    0.0000000000000000    0.0000000000000000
     0.0000000000000000    8.7087935508031880   -0.0000000000000000
    -0.0000000000000000   -0.0000000000000000    8.7087935508031880
  12  12   4
Direct
  0.0595699760854715  0.0595699760854715  0.0595699760854715
  0.4404300239145286  0.9404300239145286  0.5595699760854714
  0.9404300239145286  0.5595699760854714  0.4404300239145286
  0.5595699760854714  0.4404300239145286  0.9404300239145286
  0.5682055599683025  0.5682055599683025  0.5682055599683025
  0.9317944400316975  0.4317944400316975  0.0682055599683025
  0.4317944400316975  0.0682055599683025  0.9317944400316975
  0.0682055599683025  0.9317944400316975  0.4317944400316975
  0.8251634627320293  0.8251634627320293  0.8251634627320293
  0.6748365372679707  0.1748365372679777  0.3251634627320223
  0.1748365372679777  0.3251634627320223  0.6748365372679707
  0.3251634627320223  0.6748365372679707  0.1748365372679777
  0.0151288495515599  0.2499616981238499  0.3590692705759403
  0.4848711504484401  0.7500383018761501  0.8590692705759404
  0.9848711504484401  0.7499616981238499  0.1409307294240596
  0.5151288495515599  0.2500383018761501  0.6409307294240596
  0.3590692705759403  0.0151288495515599  0.2499616981238499
  0.8590692705759404  0.4848711504484401  0.7500383018761501
  0.1409307294240596  0.9848711504484401  0.7499616981238499
  0.6409307294240596  0.5151288495515599  0.2500383018761501
  0.2499616981238499  0.3590692705759403  0.0151288495515599
  0.7500383018761501  0.8590692705759404  0.4848711504484401
  0.7499616981238499  0.1409307294240596  0.9848711504484401
  0.2500383018761501  0.6409307294240596  0.5151288495515599
  0.2858353642174968  0.2858353642174968  0.2858353642174968
  0.2141646357825032  0.7141646357825032  0.7858353642174968
  0.7141646357825032  0.7858353642174968  0.2141646357825032
  0.7858353642174968  0.2141646357825032  0.7141646357825032
 
  0.00000000E+00  0.00000000E+00  0.00000000E+00
  0.00000000E+00  0.00000000E+00  0.00000000E+00
  0.00000000E+00  0.00000000E+00  0.00000000E+00
  0.00000000E+00  0.00000000E+00  0.00000000E+00
  0.00000000E+00  0.00000000E+00  0.00000000E+00
  0.00000000E+00  0.00000000E+00  0.00000000E+00
  0.00000000E+00  0.00000000E+00  0.00000000E+00
  0.00000000E+00  0.00000000E+00  0.00000000E+00
  0.00000000E+00  0.00000000E+00  0.00000000E+00
  0.00000000E+00  0.00000000E+00  0.00000000E+00
  0.00000000E+00  0.00000000E+00  0.00000000E+00
  0.00000000E+00  0.00000000E+00  0.00000000E+00
  0.00000000E+00  0.00000000E+00  0.00000000E+00
  0.00000000E+00  0.00000000E+00  0.00000000E+00
  0.00000000E+00  0.00000000E+00  0.00000000E+00
  0.00000000E+00  0.00000000E+00  0.00000000E+00
  0.00000000E+00  0.00000000E+00  0.00000000E+00
  0.00000000E+00  0.00000000E+00  0.00000000E+00
  0.00000000E+00  0.00000000E+00  0.00000000E+00
  0.00000000E+00  0.00000000E+00  0.00000000E+00
  0.00000000E+00  0.00000000E+00  0.00000000E+00
  0.00000000E+00  0.00000000E+00  0.00000000E+00
  0.00000000E+00  0.00000000E+00  0.00000000E+00
  0.00000000E+00  0.00000000E+00  0.00000000E+00
  0.00000000E+00  0.00000000E+00  0.00000000E+00
  0.00000000E+00  0.00000000E+00  0.00000000E+00
  0.00000000E+00  0.00000000E+00  0.00000000E+00
  0.00000000E+00  0.00000000E+00  0.00000000E+00
