Hf1Ni2Si2 #139 - (Hf1Ni2Si2_ICSD_638721)
    1.000000000000000     
    -1.8703161615792199    1.8703161615792199    4.7969624868864749
     1.8703161615792199   -1.8703161615792199    4.7969624868864749
     1.8703161615792199    1.8703161615792199   -4.7969624868864749
   1   2   2
Direct
  0.0000000000000000  0.0000000000000000  0.0000000000000000
  0.2500000000000000  0.7500000000000000  0.5000000000000000
  0.7500000000000000  0.2500000000000000  0.5000000000000000
  0.3796242731980247  0.3796242731980247  0.0000000000000000
  0.6203757268019753  0.6203757268019753  0.0000000000000000
 
  0.00000000E+00  0.00000000E+00  0.00000000E+00
  0.00000000E+00  0.00000000E+00  0.00000000E+00
  0.00000000E+00  0.00000000E+00  0.00000000E+00
  0.00000000E+00  0.00000000E+00  0.00000000E+00
  0.00000000E+00  0.00000000E+00  0.00000000E+00
