Ge1Os1Zr1 #189 - (Ge1Os1Zr1_ICSD_637491)
    1.000000000000000     
     3.3874623606491165   -5.8671937058350503    0.0000000000000000
     3.3874623606491165    5.8671937058350503    0.0000000000000000
     0.0000000000000000    0.0000000000000000    3.8199314172027683
   3   3   3
Direct
  0.3333272581939913  0.6666654292826695  0.0000000000000000
  0.6666654292826695  0.3333272581939913  0.0000000000000000
  0.0000042401237344  0.0000042401237344  0.5000000000000000
  0.2453462222196634  0.9999987466740187  0.0000000000000000
  0.9999987466740187  0.2453462222196634  0.0000000000000000
  0.7546500673540002  0.7546500673540002  0.0000000000000000
  0.5853476902637095  0.0000002194756882  0.5000000000000000
  0.0000002194756882  0.5853476902637095  0.5000000000000000
  0.4146601264125176  0.4146601264125176  0.5000000000000000
 
  0.00000000E+00  0.00000000E+00  0.00000000E+00
  0.00000000E+00  0.00000000E+00  0.00000000E+00
  0.00000000E+00  0.00000000E+00  0.00000000E+00
  0.00000000E+00  0.00000000E+00  0.00000000E+00
  0.00000000E+00  0.00000000E+00  0.00000000E+00
  0.00000000E+00  0.00000000E+00  0.00000000E+00
  0.00000000E+00  0.00000000E+00  0.00000000E+00
  0.00000000E+00  0.00000000E+00  0.00000000E+00
  0.00000000E+00  0.00000000E+00  0.00000000E+00
