Ca1S3Zr1   [ORC,ORC,oP20] (STD_PRIM doi:
   1.00000000000000     
     6.5867886315010926   -0.0000000000000000    0.0000000000000000
    -0.0000000000000000    7.0837604073236644    0.0000000000000000
     0.0000000000000000    0.0000000000000000    9.6664469000360835
   4  12   4
Direct
  0.9668988093971368  0.0925121967787499  0.7500000000000000
  0.4668988093971368  0.4074878032212501  0.2500000000000000
  0.0331011906028632  0.9074878032212501  0.2500000000000000
  0.5331011906028632  0.5925121967787499  0.7500000000000000
  0.3752084123132628  0.9651937947948244  0.7500000000000000
  0.8752084123132556  0.5348062052051756  0.2500000000000000
  0.6247915876867444  0.0348062052051756  0.2500000000000000
  0.1247915876867372  0.4651937947948244  0.7500000000000000
  0.1826229465472270  0.1899836671084680  0.0636640030357875
  0.6826229465472270  0.3100163328915320  0.9363359969642125
  0.8173770534527730  0.8100163328915320  0.5636640030357875
  0.3173770534527730  0.6899836671084680  0.4363359969642125
  0.8173770534527730  0.8100163328915320  0.9363359969642125
  0.3173770534527730  0.6899836671084680  0.0636640030357875
  0.1826229465472270  0.1899836671084680  0.4363359969642125
  0.6826229465472270  0.3100163328915320  0.5636640030357875
  0.5000000000000000  0.0000000000000000  0.0000000000000000
  0.0000000000000000  0.5000000000000000  0.0000000000000000
  0.5000000000000000  0.0000000000000000  0.5000000000000000
  0.0000000000000000  0.5000000000000000  0.5000000000000000
 
  0.00000000E+00  0.00000000E+00  0.00000000E+00
  0.00000000E+00  0.00000000E+00  0.00000000E+00
  0.00000000E+00  0.00000000E+00  0.00000000E+00
  0.00000000E+00  0.00000000E+00  0.00000000E+00
  0.00000000E+00  0.00000000E+00  0.00000000E+00
  0.00000000E+00  0.00000000E+00  0.00000000E+00
  0.00000000E+00  0.00000000E+00  0.00000000E+00
  0.00000000E+00  0.00000000E+00  0.00000000E+00
  0.00000000E+00  0.00000000E+00  0.00000000E+00
  0.00000000E+00  0.00000000E+00  0.00000000E+00
  0.00000000E+00  0.00000000E+00  0.00000000E+00
  0.00000000E+00  0.00000000E+00  0.00000000E+00
  0.00000000E+00  0.00000000E+00  0.00000000E+00
  0.00000000E+00  0.00000000E+00  0.00000000E+00
  0.00000000E+00  0.00000000E+00  0.00000000E+00
  0.00000000E+00  0.00000000E+00  0.00000000E+00
  0.00000000E+00  0.00000000E+00  0.00000000E+00
  0.00000000E+00  0.00000000E+00  0.00000000E+00
  0.00000000E+00  0.00000000E+00  0.00000000E+00
  0.00000000E+00  0.00000000E+00  0.00000000E+00
