Al20La1Ti2   [FCC,FCC,cF184] (STD_PRIM d
   1.22474500000000     
     0.0000000000000000    6.0537344793714540    6.0537344793714540
     6.0537344793714540    0.0000000000000000    6.0537344793714540
     6.0537344793714540    6.0537344793714540    0.0000000000000000
  40   2   4
Direct
  0.5134779424672757  0.2365220575327243  0.7365220575327243
  0.2365220575327243  0.5134779424672757  0.0134779424672757
  0.5134779424672757  0.5134779424672757  0.7365220575327243
  0.2365220575327243  0.2365220575327243  0.0134779424672757
  0.2365220575327243  0.5134779424672757  0.7365220575327243
  0.5134779424672757  0.2365220575327243  0.0134779424672757
  0.7634779424672757  0.7634779424672757  0.9865220575327243
  0.4865220575327243  0.4865220575327243  0.2634779424672757
  0.7634779424672757  0.4865220575327243  0.9865220575327243
  0.4865220575327243  0.7634779424672757  0.2634779424672757
  0.7634779424672757  0.4865220575327243  0.2634779424672757
  0.4865220575327243  0.7634779424672757  0.9865220575327243
  0.2068665966143826  0.6747801885624511  0.4435730262607152
  0.9435730262607152  0.6747801885624511  0.7068665966143826
  0.6747801885624511  0.2068665966143826  0.1747801885624511
  0.6747801885624511  0.9435730262607152  0.1747801885624511
  0.6747801885624511  0.2068665966143826  0.4435730262607152
  0.6747801885624511  0.9435730262607152  0.7068665966143826
  0.9435730262607152  0.6747801885624511  0.1747801885624511
  0.2068665966143826  0.6747801885624511  0.1747801885624511
  0.6747801885624511  0.6747801885624511  0.4435730262607152
  0.6747801885624511  0.6747801885624511  0.7068665966143826
  0.2068665966143826  0.9435730262607152  0.1747801885624511
  0.9435730262607152  0.2068665966143826  0.1747801885624511
  0.0564269737392848  0.3252198114375489  0.2931334033856174
  0.7931334033856174  0.3252198114375489  0.5564269737392848
  0.3252198114375489  0.7931334033856174  0.8252198114375489
  0.3252198114375489  0.0564269737392848  0.8252198114375489
  0.0564269737392848  0.7931334033856174  0.8252198114375489
  0.7931334033856174  0.0564269737392848  0.8252198114375489
  0.3252198114375489  0.3252198114375560  0.5564269737392848
  0.3252198114375489  0.3252198114375489  0.2931334033856174
  0.0564269737392848  0.3252198114375489  0.8252198114375489
  0.7931334033856174  0.3252198114375489  0.8252198114375489
  0.3252198114375489  0.0564269737392848  0.2931334033856174
  0.3252198114375489  0.7931334033856174  0.5564269737392848
  0.0000000000000000  0.0000000000000000  0.0000000000000000
  0.5000000000000000  0.0000000000000000  0.5000000000000000
  0.0000000000000000  0.0000000000000000  0.5000000000000000
  0.0000000000000000  0.5000000000000000  0.5000000000000000
  0.8750000000000000  0.8750000000000000  0.3750000000000000
  0.1250000000000000  0.1250000000000000  0.6250000000000000
  0.5000000000000000  0.5000000000000000  0.5000000000000000
  0.0000000000000000  0.5000000000000000  0.0000000000000000
  0.5000000000000000  0.5000000000000000  0.0000000000000000
  0.5000000000000000  0.0000000000000000  0.0000000000000000
 
  0.00000000E+00  0.00000000E+00  0.00000000E+00
  0.00000000E+00  0.00000000E+00  0.00000000E+00
  0.00000000E+00  0.00000000E+00  0.00000000E+00
  0.00000000E+00  0.00000000E+00  0.00000000E+00
  0.00000000E+00  0.00000000E+00  0.00000000E+00
  0.00000000E+00  0.00000000E+00  0.00000000E+00
  0.00000000E+00  0.00000000E+00  0.00000000E+00
  0.00000000E+00  0.00000000E+00  0.00000000E+00
  0.00000000E+00  0.00000000E+00  0.00000000E+00
  0.00000000E+00  0.00000000E+00  0.00000000E+00
  0.00000000E+00  0.00000000E+00  0.00000000E+00
  0.00000000E+00  0.00000000E+00  0.00000000E+00
  0.00000000E+00  0.00000000E+00  0.00000000E+00
  0.00000000E+00  0.00000000E+00  0.00000000E+00
  0.00000000E+00  0.00000000E+00  0.00000000E+00
  0.00000000E+00  0.00000000E+00  0.00000000E+00
  0.00000000E+00  0.00000000E+00  0.00000000E+00
  0.00000000E+00  0.00000000E+00  0.00000000E+00
  0.00000000E+00  0.00000000E+00  0.00000000E+00
  0.00000000E+00  0.00000000E+00  0.00000000E+00
  0.00000000E+00  0.00000000E+00  0.00000000E+00
  0.00000000E+00  0.00000000E+00  0.00000000E+00
  0.00000000E+00  0.00000000E+00  0.00000000E+00
  0.00000000E+00  0.00000000E+00  0.00000000E+00
  0.00000000E+00  0.00000000E+00  0.00000000E+00
  0.00000000E+00  0.00000000E+00  0.00000000E+00
  0.00000000E+00  0.00000000E+00  0.00000000E+00
  0.00000000E+00  0.00000000E+00  0.00000000E+00
  0.00000000E+00  0.00000000E+00  0.00000000E+00
  0.00000000E+00  0.00000000E+00  0.00000000E+00
  0.00000000E+00  0.00000000E+00  0.00000000E+00
  0.00000000E+00  0.00000000E+00  0.00000000E+00
  0.00000000E+00  0.00000000E+00  0.00000000E+00
  0.00000000E+00  0.00000000E+00  0.00000000E+00
  0.00000000E+00  0.00000000E+00  0.00000000E+00
  0.00000000E+00  0.00000000E+00  0.00000000E+00
  0.00000000E+00  0.00000000E+00  0.00000000E+00
  0.00000000E+00  0.00000000E+00  0.00000000E+00
  0.00000000E+00  0.00000000E+00  0.00000000E+00
  0.00000000E+00  0.00000000E+00  0.00000000E+00
  0.00000000E+00  0.00000000E+00  0.00000000E+00
  0.00000000E+00  0.00000000E+00  0.00000000E+00
  0.00000000E+00  0.00000000E+00  0.00000000E+00
  0.00000000E+00  0.00000000E+00  0.00000000E+00
  0.00000000E+00  0.00000000E+00  0.00000000E+00
  0.00000000E+00  0.00000000E+00  0.00000000E+00
