Al1Cl4Cu1   [TET,TET,tP12] (STD_PRIM doi
   1.00000000000000     
     5.5900338261759153    0.0000000000000000    0.0000000000000000
     0.0000000000000000    5.5900338261759153    0.0000000000000000
     0.0000000000000000   -0.0000000000000000   10.1100305359037943
   2   8   2
Direct
  0.0000000000000000  0.5000000000000000  0.2500000000000000
  0.5000000000000000  0.0000000000000000  0.7500000000000000
  0.2259169265434896  0.2747575320336825  0.3719436881081515
  0.7740830734565104  0.7252424679663175  0.3719436881081515
  0.2747575320336825  0.7740830734565104  0.6280563118918485
  0.7252424679663175  0.2259169265434896  0.6280563118918485
  0.7740830734565104  0.2747575320336825  0.1280563118918485
  0.2259169265434896  0.7252424679663175  0.1280563118918485
  0.7252424679663175  0.7740830734565104  0.8719436881081515
  0.2747575320336825  0.2259169265434896  0.8719436881081515
 -0.0000000000000000  0.0000000000000000  0.5000000000000000
  0.0000000000000000  0.0000000000000000  0.0000000000000000
 
  0.00000000E+00  0.00000000E+00  0.00000000E+00
  0.00000000E+00  0.00000000E+00  0.00000000E+00
  0.00000000E+00  0.00000000E+00  0.00000000E+00
  0.00000000E+00  0.00000000E+00  0.00000000E+00
  0.00000000E+00  0.00000000E+00  0.00000000E+00
  0.00000000E+00  0.00000000E+00  0.00000000E+00
  0.00000000E+00  0.00000000E+00  0.00000000E+00
  0.00000000E+00  0.00000000E+00  0.00000000E+00
  0.00000000E+00  0.00000000E+00  0.00000000E+00
  0.00000000E+00  0.00000000E+00  0.00000000E+00
  0.00000000E+00  0.00000000E+00  0.00000000E+00
  0.00000000E+00  0.00000000E+00  0.00000000E+00
