Dy1Mg1Sn1   [BCT,BCT2,tI12] (STD_PRIM do
   1.00000000000000     
    -2.2086259283425731    2.2086259283425731    7.9925169191889864
     2.2086259283425731   -2.2086259283425731    7.9925169191889864
     2.2086259283425731    2.2086259283425731   -7.9925169191889864
   2   2   2
Direct
  0.6665590902216373  0.6665590902216373 -0.0000000000000000
  0.3334409097783627  0.3334409097783627 -0.0000000000000000
  0.5000000000000000  0.0000000000000000  0.5000000000000000
 -0.0000000000000000  0.5000000000000000  0.5000000000000000
  0.8631384283739694  0.8631384283739694  0.0000000000000000
  0.1368615716260305  0.1368615716260305 -0.0000000000000000
 
  0.00000000E+00  0.00000000E+00  0.00000000E+00
  0.00000000E+00  0.00000000E+00  0.00000000E+00
  0.00000000E+00  0.00000000E+00  0.00000000E+00
  0.00000000E+00  0.00000000E+00  0.00000000E+00
  0.00000000E+00  0.00000000E+00  0.00000000E+00
  0.00000000E+00  0.00000000E+00  0.00000000E+00
