N2W1   [HEX,HEX,hP6] (STD_PRIM doi:10.10
   1.00000000000000     
     1.4751196736509162   -2.5549822220078111    0.0000000000000000
     1.4751414175197677    2.5549947758363456   -0.0000000000000000
    -0.0000000000000000    0.0000000000000000    7.8056323652261170
   4   2
Direct
  0.9999906683364750  0.9999813366729501  0.0899979761676908
  0.0000093316635250  0.0000186633270499  0.5899979761676908
  0.0000093316635250  0.0000186633270499  0.9100020238323092
  0.9999906683364750  0.9999813366729501  0.4100020238323093
  0.3333217759307429  0.6666435518614858  0.2500000000000000
  0.6666782240692570  0.3333564481385142  0.7500000000000000
 
  0.00000000E+00  0.00000000E+00  0.00000000E+00
  0.00000000E+00  0.00000000E+00  0.00000000E+00
  0.00000000E+00  0.00000000E+00  0.00000000E+00
  0.00000000E+00  0.00000000E+00  0.00000000E+00
  0.00000000E+00  0.00000000E+00  0.00000000E+00
  0.00000000E+00  0.00000000E+00  0.00000000E+00
