Ag1K1O1   [BCT,BCT1,tI24] (STD_PRIM doi:
   1.00000000000000     
    -5.0393909790321842    5.0393909790321842    2.7575379430693130
     5.0393909790321842   -5.0393909790321842    2.7575379430693130
     5.0393909790321842    5.0393909790321842   -2.7575379430693130
   4   4   4
Direct
  0.8971060136510657  0.3971060136510656  0.7942120273021241
  0.6028939863489343  0.1028939863489344  0.2057879726978759
  0.6028939863489343  0.3971060136510656  0.5000000000000000
  0.8971060136510657  0.1028939863489344  0.5000000000000000
  0.5751251218495878  0.7504939502031706  0.8246311716464242
  0.9258627785567463  0.7504939502031706  0.1753688283535757
  0.2495060497968294  0.0741372214432537  0.8246311716464242
  0.2495060497968294  0.4248748781504122  0.1753688283535757
  0.0463021505322149  0.2515341362485738  0.7947680142836411
  0.4567661219649397  0.2515341362485738  0.2052319857163660
  0.7484658637514262  0.5432338780350602  0.7947680142836411
  0.7484658637514262  0.9536978494677851  0.2052319857163660
 
  0.00000000E+00  0.00000000E+00  0.00000000E+00
  0.00000000E+00  0.00000000E+00  0.00000000E+00
  0.00000000E+00  0.00000000E+00  0.00000000E+00
  0.00000000E+00  0.00000000E+00  0.00000000E+00
  0.00000000E+00  0.00000000E+00  0.00000000E+00
  0.00000000E+00  0.00000000E+00  0.00000000E+00
  0.00000000E+00  0.00000000E+00  0.00000000E+00
  0.00000000E+00  0.00000000E+00  0.00000000E+00
  0.00000000E+00  0.00000000E+00  0.00000000E+00
  0.00000000E+00  0.00000000E+00  0.00000000E+00
  0.00000000E+00  0.00000000E+00  0.00000000E+00
  0.00000000E+00  0.00000000E+00  0.00000000E+00
