Al1Pd1Y1   [HEX,HEX,hP9] (STD_PRIM doi:1
   1.00000000000000     
     3.6223217541380470   -6.2740453195291188    0.0000000000000000
     3.6222772338025178    6.2740196157014170    0.0000000000000000
     0.0000000000000000    0.0000000000000000    3.9680748134240780
   3   3   3
Direct
  0.0000069482467827  0.7610102322727788  0.0000000000000000
  0.2389967159739970  0.2389897677272214  0.0000000000000000
  0.7610010318215535  0.0000000000000000  0.0000000000000000
  0.9999947224458251 -0.0000000000000000  0.5000000000000000
  0.6666757057306733  0.3333516456798852  0.0000000000000000
  0.3333240600507879  0.6666483543201148  0.0000000000000000
  0.9999969080078155  0.4140405006469184  0.5000000000000000
  0.5859564073608969  0.5859594993530814  0.5000000000000000
  0.4140475003616610  0.0000000000000000  0.5000000000000000
 
  0.00000000E+00  0.00000000E+00  0.00000000E+00
  0.00000000E+00  0.00000000E+00  0.00000000E+00
  0.00000000E+00  0.00000000E+00  0.00000000E+00
  0.00000000E+00  0.00000000E+00  0.00000000E+00
  0.00000000E+00  0.00000000E+00  0.00000000E+00
  0.00000000E+00  0.00000000E+00  0.00000000E+00
  0.00000000E+00  0.00000000E+00  0.00000000E+00
  0.00000000E+00  0.00000000E+00  0.00000000E+00
  0.00000000E+00  0.00000000E+00  0.00000000E+00
