Ca1Cd2   [HEX,HEX,hP12] (STD_PRIM doi:10
   1.00000000000000     
     3.0254489705076262   -5.2402313326261671   -0.0000000000000000
     3.0253164156300780    5.2401548020319328    0.0000000000000000
     0.0000000000000000    0.0000000000000000    9.6680437384229414
   4   8
Direct
  0.6666850981018257  0.3333701962036514  0.0602719827206954
  0.3333149018981743  0.6666298037963485  0.5602719827206953
  0.3333149018981743  0.6666298037963485  0.9397280172793047
  0.6666850981018257  0.3333701962036514  0.4397280172793047
  0.0000000000000000  0.0000000000000000  0.0000000000000000
 -0.0000000000000000 -0.0000000000000000  0.5000000000000000
  0.1704371209972652  0.8295752167079505  0.2500000000000000
  0.1704295399297354  0.3408590798594707  0.2500000000000000
  0.6591380957106853  0.8295752167079505  0.2500000000000000
  0.8295628790027347  0.1704247832920495  0.7500000000000000
  0.8295704600702647  0.6591409201405292  0.7500000000000000
  0.3408619042893147  0.1704247832920495  0.7500000000000000
 
  0.00000000E+00  0.00000000E+00  0.00000000E+00
  0.00000000E+00  0.00000000E+00  0.00000000E+00
  0.00000000E+00  0.00000000E+00  0.00000000E+00
  0.00000000E+00  0.00000000E+00  0.00000000E+00
  0.00000000E+00  0.00000000E+00  0.00000000E+00
  0.00000000E+00  0.00000000E+00  0.00000000E+00
  0.00000000E+00  0.00000000E+00  0.00000000E+00
  0.00000000E+00  0.00000000E+00  0.00000000E+00
  0.00000000E+00  0.00000000E+00  0.00000000E+00
  0.00000000E+00  0.00000000E+00  0.00000000E+00
  0.00000000E+00  0.00000000E+00  0.00000000E+00
  0.00000000E+00  0.00000000E+00  0.00000000E+00
