Dy1In1Pt4   [FCC,FCC,cF24] (STD_PRIM doi
   1.22474500000000     
     0.0000000000000000    3.0977819076096007    3.0977819076096007
     3.0977819076096007    0.0000000000000000    3.0977819076096007
     3.0977819076096007    3.0977819076096007   -0.0000000000000000
   1   1   4
Direct
  0.0000000000000000 -0.0000000000000000 -0.0000000000000000
  0.7500000000000000  0.7500000000000000  0.7500000000000000
  0.3752737829858697  0.3752737829858697  0.8741786510423766
  0.8741786510423766  0.3752737829858697  0.3752737829858697
  0.3752737829858697  0.3752737829858697  0.3752737829858697
  0.3752737829858697  0.8741786510423766  0.3752737829858697
 
  0.00000000E+00  0.00000000E+00  0.00000000E+00
  0.00000000E+00  0.00000000E+00  0.00000000E+00
  0.00000000E+00  0.00000000E+00  0.00000000E+00
  0.00000000E+00  0.00000000E+00  0.00000000E+00
  0.00000000E+00  0.00000000E+00  0.00000000E+00
  0.00000000E+00  0.00000000E+00  0.00000000E+00
