F3Y1   [CUB,CUB,cP12] (STD_PRIM doi:10.1
   1.00000000000000     
     5.3913979626471944   -0.0000000000000000   -0.0000000000000000
    -0.0000000000000000    5.3913979626471944   -0.0000000000000000
     0.0000000000000000   -0.0000000000000000    5.3913979626471944
   9   3
Direct
  0.5000000000000000  0.5000000000000000  0.5000000000000000
  0.2426152821342453  0.2426152821342453  0.2426152821342453
  0.7573847178657547  0.7573847178657547  0.2426152821342453
  0.7573847178657547  0.2426152821342453  0.7573847178657547
  0.2426152821342453  0.7573847178657547  0.7573847178657547
  0.2426152821342453  0.2426152821342453  0.7573847178657547
  0.7573847178657547  0.7573847178657547  0.7573847178657547
  0.2426152821342453  0.7573847178657547  0.2426152821342453
  0.7573847178657547  0.2426152821342453  0.2426152821342453
  0.5000000000000000  0.5000000000000000  0.0000000000000000
  0.0000000000000000  0.5000000000000000  0.5000000000000000
  0.5000000000000000  0.0000000000000000  0.5000000000000000
 
  0.00000000E+00  0.00000000E+00  0.00000000E+00
  0.00000000E+00  0.00000000E+00  0.00000000E+00
  0.00000000E+00  0.00000000E+00  0.00000000E+00
  0.00000000E+00  0.00000000E+00  0.00000000E+00
  0.00000000E+00  0.00000000E+00  0.00000000E+00
  0.00000000E+00  0.00000000E+00  0.00000000E+00
  0.00000000E+00  0.00000000E+00  0.00000000E+00
  0.00000000E+00  0.00000000E+00  0.00000000E+00
  0.00000000E+00  0.00000000E+00  0.00000000E+00
  0.00000000E+00  0.00000000E+00  0.00000000E+00
  0.00000000E+00  0.00000000E+00  0.00000000E+00
  0.00000000E+00  0.00000000E+00  0.00000000E+00
