B4V3   [ORCI,ORCI,oI14] (STD_PRIM doi:10
   1.00000000000000     
    -1.4973733068525992    1.5371678424258515    6.6402434781763473
     1.4973733068525992   -1.5371678424258515    6.6402434781763473
     1.4973733068525992    1.5371678424258515   -6.6402434781763473
   4   3
Direct
  0.6360574087141494  0.6360574087141494  0.0000000000000000
  0.3639425912858507  0.3639425912858507 -0.0000000000000000
  0.5654594526229502  0.0654594526229501  0.5000000000000000
  0.4345405473770498  0.9345405473770498  0.5000000000000000
 -0.0000000000000000  0.5000000000000000  0.5000000000000000
  0.8126345400215217  0.8126345400215217 -0.0000000000000000
  0.1873654599784784  0.1873654599784784  0.0000000000000000
 
  0.00000000E+00  0.00000000E+00  0.00000000E+00
  0.00000000E+00  0.00000000E+00  0.00000000E+00
  0.00000000E+00  0.00000000E+00  0.00000000E+00
  0.00000000E+00  0.00000000E+00  0.00000000E+00
  0.00000000E+00  0.00000000E+00  0.00000000E+00
  0.00000000E+00  0.00000000E+00  0.00000000E+00
  0.00000000E+00  0.00000000E+00  0.00000000E+00
