Ho2Mg1Se4   [FCC,FCC,cF56] (STD_PRIM doi
   1.22474500000000     
     0.0000000000000000    4.7574183490184998    4.7574183490184998
     4.7574183490184998    0.0000000000000000    4.7574183490184998
     4.7574183490184998    4.7574183490184998   -0.0000000000000000
   4   2   8
Direct
 -0.0000000000000000  0.0000000000000000 -0.0000000000000000
  0.5000000000000000 -0.0000000000000000 -0.0000000000000000
 -0.0000000000000000  0.0000000000000000  0.5000000000000000
  0.0000000000000000  0.5000000000000000 -0.0000000000000000
  0.3750000000000000  0.3750000000000000  0.3750000000000000
  0.6250000000000000  0.6250000000000000  0.6250000000000000
  0.2451927041430450  0.2451927041430450  0.2451927041430450
  0.7644218875708791  0.2451927041430450  0.2451927041430450
  0.2451927041430450  0.2451927041430450  0.7644218875708791
  0.2451927041430450  0.7644218875708791  0.2451927041430450
  0.2355781124291208  0.7548072958569549  0.7548072958569549
  0.7548072958569549  0.7548072958569549  0.7548072958569549
  0.7548072958569549  0.7548072958569549  0.2355781124291208
  0.7548072958569549  0.2355781124291208  0.7548072958569549
 
  0.00000000E+00  0.00000000E+00  0.00000000E+00
  0.00000000E+00  0.00000000E+00  0.00000000E+00
  0.00000000E+00  0.00000000E+00  0.00000000E+00
  0.00000000E+00  0.00000000E+00  0.00000000E+00
  0.00000000E+00  0.00000000E+00  0.00000000E+00
  0.00000000E+00  0.00000000E+00  0.00000000E+00
  0.00000000E+00  0.00000000E+00  0.00000000E+00
  0.00000000E+00  0.00000000E+00  0.00000000E+00
  0.00000000E+00  0.00000000E+00  0.00000000E+00
  0.00000000E+00  0.00000000E+00  0.00000000E+00
  0.00000000E+00  0.00000000E+00  0.00000000E+00
  0.00000000E+00  0.00000000E+00  0.00000000E+00
  0.00000000E+00  0.00000000E+00  0.00000000E+00
  0.00000000E+00  0.00000000E+00  0.00000000E+00
