F2Mg1   [CUB,CUB,cP12] (STD_PRIM doi:10.
   1.00000000000000     
     5.0093057985754594    0.0000000000000000    0.0000000000000000
     0.0000000000000000    5.0093057985754594    0.0000000000000000
     0.0000000000000000    0.0000000000000000    5.0093057985754594
   8   4
Direct
  0.3399296910187459  0.3399296910187459  0.3399296910187459
  0.1600703089812541  0.6600703089812541  0.8399296910187459
  0.6600703089812541  0.8399296910187459  0.1600703089812541
  0.8399296910187459  0.1600703089812541  0.6600703089812541
  0.6600703089812541  0.6600703089812541  0.6600703089812541
  0.8399296910187459  0.3399296910187459  0.1600703089812541
  0.3399296910187459  0.1600703089812541  0.8399296910187459
  0.1600703089812541  0.8399296910187459  0.3399296910187459
  0.0000000000000000  0.0000000000000000  0.0000000000000000
  0.5000000000000000  0.0000000000000000  0.5000000000000000
  0.0000000000000000  0.5000000000000000  0.5000000000000000
  0.5000000000000000  0.5000000000000000  0.0000000000000000
 
  0.00000000E+00  0.00000000E+00  0.00000000E+00
  0.00000000E+00  0.00000000E+00  0.00000000E+00
  0.00000000E+00  0.00000000E+00  0.00000000E+00
  0.00000000E+00  0.00000000E+00  0.00000000E+00
  0.00000000E+00  0.00000000E+00  0.00000000E+00
  0.00000000E+00  0.00000000E+00  0.00000000E+00
  0.00000000E+00  0.00000000E+00  0.00000000E+00
  0.00000000E+00  0.00000000E+00  0.00000000E+00
  0.00000000E+00  0.00000000E+00  0.00000000E+00
  0.00000000E+00  0.00000000E+00  0.00000000E+00
  0.00000000E+00  0.00000000E+00  0.00000000E+00
  0.00000000E+00  0.00000000E+00  0.00000000E+00
