Re1Si1   [CUB,CUB,cP8] (STD_PRIM doi:10.
   1.00000000000000     
     4.8052800987866480    0.0000000000000000    0.0000000000000000
    -0.0000000000000000    4.8052800987866480    0.0000000000000000
    -0.0000000000000000   -0.0000000000000000    4.8052800987866480
   4   4
Direct
  0.1344160288558035  0.1344160288558035  0.1344160288558035
  0.3655839711441964  0.8655839711441964  0.6344160288558036
  0.8655839711441964  0.6344160288558036  0.3655839711441964
  0.6344160288558036  0.3655839711441964  0.8655839711441964
  0.8447775760175733  0.8447775760175733  0.8447775760175733
  0.6552224239824267  0.1552224239824266  0.3447775760175734
  0.1552224239824266  0.3447775760175734  0.6552224239824267
  0.3447775760175734  0.6552224239824267  0.1552224239824266
 
  0.00000000E+00  0.00000000E+00  0.00000000E+00
  0.00000000E+00  0.00000000E+00  0.00000000E+00
  0.00000000E+00  0.00000000E+00  0.00000000E+00
  0.00000000E+00  0.00000000E+00  0.00000000E+00
  0.00000000E+00  0.00000000E+00  0.00000000E+00
  0.00000000E+00  0.00000000E+00  0.00000000E+00
  0.00000000E+00  0.00000000E+00  0.00000000E+00
  0.00000000E+00  0.00000000E+00  0.00000000E+00
