F6Li1V2   [TET,TET,tP18] (STD_PRIM doi:1
   1.00000000000000     
     4.7711761053789079   -0.0000000000000000    0.0000000000000000
     0.0000000000000000    4.7711761053789079    0.0000000000000000
     0.0000000000000000    0.0000000000000000    9.4472056097765158
  12   2   4
Direct
  0.3063805412201959  0.3063805412201959  0.0000000000000000
  0.6936194587798041  0.6936194587798041  0.0000000000000000
  0.1936194587798041  0.8063805412201959  0.5000000000000000
  0.8063805412201959  0.1936194587798041  0.5000000000000000
  0.3007129561870108  0.3007129561870108  0.3308043503332486
  0.6992870438129893  0.6992870438129893  0.3308043503332486
  0.1992870438129893  0.8007129561870107  0.8308043503332486
  0.8007129561870107  0.1992870438129893  0.8308043503332486
  0.1992870438129893  0.8007129561870107  0.1691956496667514
  0.8007129561870107  0.1992870438129893  0.1691956496667514
  0.3007129561870108  0.3007129561870108  0.6691956496667514
  0.6992870438129893  0.6992870438129893  0.6691956496667514
  0.0000000000000000  0.0000000000000000  0.0000000000000000
  0.5000000000000000  0.5000000000000000  0.5000000000000000
  0.0000000000000000 -0.0000000000000000  0.3325233734204865
  0.5000000000000000  0.5000000000000000  0.8325233734204865
  0.5000000000000000  0.5000000000000000  0.1674766265795135
 -0.0000000000000000  0.0000000000000000  0.6674766265795135
 
  0.00000000E+00  0.00000000E+00  0.00000000E+00
  0.00000000E+00  0.00000000E+00  0.00000000E+00
  0.00000000E+00  0.00000000E+00  0.00000000E+00
  0.00000000E+00  0.00000000E+00  0.00000000E+00
  0.00000000E+00  0.00000000E+00  0.00000000E+00
  0.00000000E+00  0.00000000E+00  0.00000000E+00
  0.00000000E+00  0.00000000E+00  0.00000000E+00
  0.00000000E+00  0.00000000E+00  0.00000000E+00
  0.00000000E+00  0.00000000E+00  0.00000000E+00
  0.00000000E+00  0.00000000E+00  0.00000000E+00
  0.00000000E+00  0.00000000E+00  0.00000000E+00
  0.00000000E+00  0.00000000E+00  0.00000000E+00
  0.00000000E+00  0.00000000E+00  0.00000000E+00
  0.00000000E+00  0.00000000E+00  0.00000000E+00
  0.00000000E+00  0.00000000E+00  0.00000000E+00
  0.00000000E+00  0.00000000E+00  0.00000000E+00
  0.00000000E+00  0.00000000E+00  0.00000000E+00
  0.00000000E+00  0.00000000E+00  0.00000000E+00
