Al1Ca1Si1   [HEX,HEX,hP3] (STD_PRIM doi:
   1.00000000000000     
     2.1030287434140726   -3.6425783944977428    0.0000000000000000
     2.1030287434140726    3.6425783944977428    0.0000000000000000
     0.0000000000000000    0.0000000000000000    4.3805477111887816
   1   1   1
Direct
  0.3333279842642565  0.6666720157357434  0.5000000000000000
  0.9999970585179522  0.0000029414820478  0.0000000000000000
  0.6666749572177914  0.3333250427822087  0.5000000000000000
 
  0.00000000E+00  0.00000000E+00  0.00000000E+00
  0.00000000E+00  0.00000000E+00  0.00000000E+00
  0.00000000E+00  0.00000000E+00  0.00000000E+00
