Al2Ba1Si2   [ORC,ORC,oP20] (STD_PRIM doi
   1.00000000000000     
     4.2665983303814663    0.0000000000000000    0.0000000000000000
     0.0000000000000000   10.1326893652989973    0.0000000000000000
     0.0000000000000000    0.0000000000000000   10.9393670137332748
   8   4   8
Direct
  0.2500000000000000  0.5417385739812696  0.6189878453264441
  0.7500000000000000  0.9582614260187304  0.1189878453264441
  0.7500000000000000  0.4582614260187304  0.3810121546735559
  0.2500000000000000  0.0417385739812695  0.8810121546735559
  0.2500000000000000  0.1007405279674900  0.4525859933632397
  0.7500000000000000  0.3992594720325101  0.9525859933632397
  0.7500000000000000  0.8992594720325100  0.5474140066367603
  0.2500000000000000  0.6007405279674900  0.0474140066367603
  0.2500000000000000  0.7476511670262400  0.3254420545282592
  0.7500000000000000  0.7523488329737600  0.8254420545282593
  0.7500000000000000  0.2523488329737599  0.6745579454717407
  0.2500000000000000  0.2476511670262401  0.1745579454717407
  0.2500000000000000  0.3547770665620573  0.4586359938887776
  0.7500000000000000  0.1452229334379427  0.9586359938887776
  0.7500000000000000  0.6452229334379426  0.5413640061112224
  0.2500000000000000  0.8547770665620574  0.0413640061112224
  0.2500000000000000  0.9758389643181740  0.6558698951369738
  0.7500000000000000  0.5241610356818260  0.1558698951369737
  0.7500000000000000  0.0241610356818261  0.3441301048630263
  0.2500000000000000  0.4758389643181739  0.8441301048630262
 
  0.00000000E+00  0.00000000E+00  0.00000000E+00
  0.00000000E+00  0.00000000E+00  0.00000000E+00
  0.00000000E+00  0.00000000E+00  0.00000000E+00
  0.00000000E+00  0.00000000E+00  0.00000000E+00
  0.00000000E+00  0.00000000E+00  0.00000000E+00
  0.00000000E+00  0.00000000E+00  0.00000000E+00
  0.00000000E+00  0.00000000E+00  0.00000000E+00
  0.00000000E+00  0.00000000E+00  0.00000000E+00
  0.00000000E+00  0.00000000E+00  0.00000000E+00
  0.00000000E+00  0.00000000E+00  0.00000000E+00
  0.00000000E+00  0.00000000E+00  0.00000000E+00
  0.00000000E+00  0.00000000E+00  0.00000000E+00
  0.00000000E+00  0.00000000E+00  0.00000000E+00
  0.00000000E+00  0.00000000E+00  0.00000000E+00
  0.00000000E+00  0.00000000E+00  0.00000000E+00
  0.00000000E+00  0.00000000E+00  0.00000000E+00
  0.00000000E+00  0.00000000E+00  0.00000000E+00
  0.00000000E+00  0.00000000E+00  0.00000000E+00
  0.00000000E+00  0.00000000E+00  0.00000000E+00
  0.00000000E+00  0.00000000E+00  0.00000000E+00
