As3Co1   [BCC,BCC,cI32] (STD_PRIM doi:10
   1.00000000000000     
    -4.1234530083748195    4.1234530083748195    4.1234530083748195
     4.1234530083748195   -4.1234530083748195    4.1234530083748195
     4.1234530083748195    4.1234530083748195   -4.1234530083748195
  12   4
Direct
  0.5064328299442981  0.8484499029130669  0.6579829270312313
  0.8095330241181714  0.1515500970869331  0.6579829270312313
  0.1904669758818286  0.8484499029130669  0.3420170729687688
  0.4935671700557019  0.1515500970869331  0.3420170729687688
  0.8484499029130669  0.6579829270312313  0.5064328299442981
  0.1515500970869331  0.6579829270312313  0.8095330241181714
  0.8484499029130669  0.3420170729687688  0.1904669758818286
  0.1515500970869331  0.3420170729687688  0.4935671700557019
  0.6579829270312313  0.5064328299442981  0.8484499029130669
  0.6579829270312313  0.8095330241181714  0.1515500970869331
  0.3420170729687688  0.1904669758818286  0.8484499029130669
  0.3420170729687688  0.4935671700557019  0.1515500970869331
  0.5000000000000000  0.5000000000000000  0.5000000000000000
  0.0000000000000000  0.5000000000000000  0.0000000000000000
  0.0000000000000000  0.0000000000000000  0.5000000000000000
  0.5000000000000000  0.0000000000000000  0.0000000000000000
 
  0.00000000E+00  0.00000000E+00  0.00000000E+00
  0.00000000E+00  0.00000000E+00  0.00000000E+00
  0.00000000E+00  0.00000000E+00  0.00000000E+00
  0.00000000E+00  0.00000000E+00  0.00000000E+00
  0.00000000E+00  0.00000000E+00  0.00000000E+00
  0.00000000E+00  0.00000000E+00  0.00000000E+00
  0.00000000E+00  0.00000000E+00  0.00000000E+00
  0.00000000E+00  0.00000000E+00  0.00000000E+00
  0.00000000E+00  0.00000000E+00  0.00000000E+00
  0.00000000E+00  0.00000000E+00  0.00000000E+00
  0.00000000E+00  0.00000000E+00  0.00000000E+00
  0.00000000E+00  0.00000000E+00  0.00000000E+00
  0.00000000E+00  0.00000000E+00  0.00000000E+00
  0.00000000E+00  0.00000000E+00  0.00000000E+00
  0.00000000E+00  0.00000000E+00  0.00000000E+00
  0.00000000E+00  0.00000000E+00  0.00000000E+00
