Au7Cd16Na6   [FCC,FCC,cF116] (STD_PRIM d
   1.22474500000000     
     0.0000000000000000    5.6614963783395558    5.6614963783395558
     5.6614963783395558    0.0000000000000000    5.6614963783395558
     5.6614963783395558    5.6614963783395558   -0.0000000000000000
   7  16   6
Direct
  0.5000000000000000  0.5000000000000000  0.5000000000000000
  0.0000000000000000  0.5000000000000000  0.5000000000000000
  0.5000000000000000 -0.0000000000000000  0.0000000000000000
  0.5000000000000000  0.5000000000000000  0.0000000000000000
 -0.0000000000000000 -0.0000000000000000  0.5000000000000000
  0.0000000000000000  0.5000000000000000 -0.0000000000000000
  0.5000000000000000  0.0000000000000000  0.5000000000000000
  0.1441303820369906  0.6186232059876698  0.6186232059876698
  0.6186232059876698  0.6186232059876698  0.6186232059876698
  0.6186232059876698  0.6186232059876698  0.1441303820369906
  0.6186232059876698  0.1441303820369906  0.6186232059876698
  0.8558696179630094  0.3813767940123302  0.3813767940123302
  0.3813767940123302  0.3813767940123302  0.3813767940123302
  0.3813767940123302  0.8558696179630094  0.3813767940123302
  0.3813767940123302  0.3813767940123302  0.8558696179630094
  0.8361490154663319  0.8361490154663319  0.4915529536010182
  0.8361490154663319  0.4915529536010182  0.8361490154663319
  0.4915529536010182  0.8361490154663319  0.8361490154663319
  0.8361490154663319  0.8361490154663319  0.8361490154663319
  0.1638509845336680  0.5084470463989818  0.1638509845336680
  0.1638509845336680  0.1638509845336680  0.5084470463989818
  0.5084470463989818  0.1638509845336680  0.1638509845336680
  0.1638509845336680  0.1638509845336680  0.1638509845336680
  0.2080157374879465  0.2080157374879465  0.7919842625120534
  0.7919842625120534  0.7919842625120534  0.2080157374879465
  0.7919842625120534  0.2080157374879465  0.7919842625120534
  0.2080157374879465  0.7919842625120534  0.2080157374879465
  0.7919842625120534  0.2080157374879465  0.2080157374879465
  0.2080157374879465  0.7919842625120534  0.7919842625120534
 
  0.00000000E+00  0.00000000E+00  0.00000000E+00
  0.00000000E+00  0.00000000E+00  0.00000000E+00
  0.00000000E+00  0.00000000E+00  0.00000000E+00
  0.00000000E+00  0.00000000E+00  0.00000000E+00
  0.00000000E+00  0.00000000E+00  0.00000000E+00
  0.00000000E+00  0.00000000E+00  0.00000000E+00
  0.00000000E+00  0.00000000E+00  0.00000000E+00
  0.00000000E+00  0.00000000E+00  0.00000000E+00
  0.00000000E+00  0.00000000E+00  0.00000000E+00
  0.00000000E+00  0.00000000E+00  0.00000000E+00
  0.00000000E+00  0.00000000E+00  0.00000000E+00
  0.00000000E+00  0.00000000E+00  0.00000000E+00
  0.00000000E+00  0.00000000E+00  0.00000000E+00
  0.00000000E+00  0.00000000E+00  0.00000000E+00
  0.00000000E+00  0.00000000E+00  0.00000000E+00
  0.00000000E+00  0.00000000E+00  0.00000000E+00
  0.00000000E+00  0.00000000E+00  0.00000000E+00
  0.00000000E+00  0.00000000E+00  0.00000000E+00
  0.00000000E+00  0.00000000E+00  0.00000000E+00
  0.00000000E+00  0.00000000E+00  0.00000000E+00
  0.00000000E+00  0.00000000E+00  0.00000000E+00
  0.00000000E+00  0.00000000E+00  0.00000000E+00
  0.00000000E+00  0.00000000E+00  0.00000000E+00
  0.00000000E+00  0.00000000E+00  0.00000000E+00
  0.00000000E+00  0.00000000E+00  0.00000000E+00
  0.00000000E+00  0.00000000E+00  0.00000000E+00
  0.00000000E+00  0.00000000E+00  0.00000000E+00
  0.00000000E+00  0.00000000E+00  0.00000000E+00
  0.00000000E+00  0.00000000E+00  0.00000000E+00
