As4Mo5   [BCT,BCT1,tI18] (STD_PRIM doi:1
   1.00000000000000     
    -4.7493059484805915    4.7493056043866790    1.5974024988102591
     4.7493059484805915   -4.7493056043866790    1.5974024988102591
     4.7493056043866790    4.7493059484805906   -1.5974024988102591
   4   5
Direct
  0.6427333215871983  0.6738428434317860  0.3165761650189915
  0.3572666784128016  0.3261571565682139  0.6834238349810084
  0.3261571565682139  0.6427333215871983  0.9688904781554123
  0.6738428434317860  0.3572666784128016  0.0311095218445877
  0.0000000000000000  0.0000000000000000  0.0000000000000000
  0.6578797284847888  0.9494910648053874  0.6073707932901761
  0.3421202715152112  0.0505089351946127  0.3926292067098310
  0.0505089351946127  0.6578797284847888  0.7083886636794016
  0.9494910648053874  0.3421202715152112  0.2916113363205985
 
  0.00000000E+00  0.00000000E+00  0.00000000E+00
  0.00000000E+00  0.00000000E+00  0.00000000E+00
  0.00000000E+00  0.00000000E+00  0.00000000E+00
  0.00000000E+00  0.00000000E+00  0.00000000E+00
  0.00000000E+00  0.00000000E+00  0.00000000E+00
  0.00000000E+00  0.00000000E+00  0.00000000E+00
  0.00000000E+00  0.00000000E+00  0.00000000E+00
  0.00000000E+00  0.00000000E+00  0.00000000E+00
  0.00000000E+00  0.00000000E+00  0.00000000E+00
