Zr1   [HEX,HEX,hP2] (STD_PRIM doi:10.101
   1.00000000000000     
     1.6160726204345499   -2.7991198873136174    0.0000000000000000
     1.6159657556265445    2.7990581888879484    0.0000000000000000
     0.0000000000000000    0.0000000000000000    5.1773747237985521
   2
Direct
  0.6666935225749455  0.3333870451498910  0.2500000000000000
  0.3333064774250545  0.6666129548501090  0.7500000000000000
 
  0.00000000E+00  0.00000000E+00  0.00000000E+00
  0.00000000E+00  0.00000000E+00  0.00000000E+00
