Ge2Mg1Y2   [TET,TET,tP10] (STD_PRIM doi:
   1.00000000000000     
     7.2781225001646641    0.0000000000000000    0.0000000000000000
     0.0000000000000000    7.2781225001646641    0.0000000000000000
     0.0000000000000000    0.0000000000000000    4.2543784308005401
   4   2   4
Direct
  0.3765595959910455  0.8765595959910455  0.0000000000000000
  0.6234404040089545  0.1234404040089545 -0.0000000000000000
  0.1234404040089545  0.3765595959910455  0.0000000000000000
  0.8765595959910455  0.6234404040089545 -0.0000000000000000
  0.0000000000000000  0.0000000000000000  0.0000000000000000
  0.5000000000000000  0.5000000000000000  0.0000000000000000
  0.1775642097614800  0.6775642097614801  0.5000000000000000
  0.8224357902385199  0.3224357902385200  0.5000000000000000
  0.3224357902385200  0.1775642097614800  0.5000000000000000
  0.6775642097614801  0.8224357902385199  0.5000000000000000
 
  0.00000000E+00  0.00000000E+00  0.00000000E+00
  0.00000000E+00  0.00000000E+00  0.00000000E+00
  0.00000000E+00  0.00000000E+00  0.00000000E+00
  0.00000000E+00  0.00000000E+00  0.00000000E+00
  0.00000000E+00  0.00000000E+00  0.00000000E+00
  0.00000000E+00  0.00000000E+00  0.00000000E+00
  0.00000000E+00  0.00000000E+00  0.00000000E+00
  0.00000000E+00  0.00000000E+00  0.00000000E+00
  0.00000000E+00  0.00000000E+00  0.00000000E+00
  0.00000000E+00  0.00000000E+00  0.00000000E+00
