F4Pb1   [BCT,BCT2,tI10] (STD_PRIM doi:10
   1.00000000000000     
    -2.1863202400781447    2.1863202400781447    4.1802302074229925
     2.1863202400781447   -2.1863202400781447    4.1802302074229925
     2.1863202400781447    2.1863202400781447   -4.1802302074229925
   4   1
Direct
  0.5000000000000000 -0.0000000000000000  0.5000000000000000
  0.0000000000000000  0.5000000000000000  0.5000000000000000
  0.2392865436386336  0.2392865436386336 -0.0000000000000000
  0.7607134563613663  0.7607134563613663  0.0000000000000000
 -0.0000000000000000  0.0000000000000000  0.0000000000000000
 
  0.00000000E+00  0.00000000E+00  0.00000000E+00
  0.00000000E+00  0.00000000E+00  0.00000000E+00
  0.00000000E+00  0.00000000E+00  0.00000000E+00
  0.00000000E+00  0.00000000E+00  0.00000000E+00
  0.00000000E+00  0.00000000E+00  0.00000000E+00
