Be13Th1   [FCC,FCC,cF112] (STD_PRIM doi:
   1.22474500000000     
     0.0000000000000000    4.2450968032698890    4.2450968032698890
     4.2450968032698890    0.0000000000000000    4.2450968032698890
     4.2450968032698890    4.2450968032698890    0.0000000000000000
  26   2
Direct
  0.0000000000000000  0.0000000000000000  0.0000000000000000
  0.5000000000000000  0.5000000000000000  0.5000000000000000
  0.2864688948495342  0.9366732665117397  0.7135311051504658
  0.9366732665117397  0.2864688948495342  0.0633267334882603
  0.0633267334882603  0.7135311051504658  0.9366732665117397
  0.7135311051504658  0.0633267334882603  0.2864688948495342
  0.2864688948495342  0.0633267334882603  0.9366732665117397
  0.9366732665117397  0.7135311051504658  0.2864688948495342
  0.0633267334882603  0.2864688948495342  0.7135311051504658
  0.7135311051504658  0.9366732665117397  0.0633267334882603
  0.2864688948495342  0.7135311051504658  0.0633267334882603
  0.9366732665117397  0.0633267334882603  0.7135311051504658
  0.0633267334882603  0.9366732665117397  0.2864688948495342
  0.7135311051504658  0.2864688948495342  0.9366732665117397
  0.5633267334882603  0.2135311051504658  0.7864688948495342
  0.2135311051504658  0.5633267334882603  0.4366732665117397
  0.7864688948495342  0.4366732665117397  0.5633267334882603
  0.4366732665117397  0.7864688948495342  0.2135311051504658
  0.4366732665117397  0.2135311051504658  0.5633267334882603
  0.7864688948495342  0.5633267334882603  0.2135311051504658
  0.2135311051504658  0.4366732665117397  0.7864688948495342
  0.5633267334882603  0.7864688948495342  0.4366732665117397
  0.7864688948495342  0.2135311051504658  0.4366732665117397
  0.4366732665117397  0.5633267334882603  0.7864688948495342
  0.5633267334882603  0.4366732665117397  0.2135311051504658
  0.2135311051504658  0.7864688948495342  0.5633267334882603
  0.7500000000000000  0.7500000000000000  0.7500000000000000
  0.2500000000000000  0.2500000000000000  0.2500000000000000
 
  0.00000000E+00  0.00000000E+00  0.00000000E+00
  0.00000000E+00  0.00000000E+00  0.00000000E+00
  0.00000000E+00  0.00000000E+00  0.00000000E+00
  0.00000000E+00  0.00000000E+00  0.00000000E+00
  0.00000000E+00  0.00000000E+00  0.00000000E+00
  0.00000000E+00  0.00000000E+00  0.00000000E+00
  0.00000000E+00  0.00000000E+00  0.00000000E+00
  0.00000000E+00  0.00000000E+00  0.00000000E+00
  0.00000000E+00  0.00000000E+00  0.00000000E+00
  0.00000000E+00  0.00000000E+00  0.00000000E+00
  0.00000000E+00  0.00000000E+00  0.00000000E+00
  0.00000000E+00  0.00000000E+00  0.00000000E+00
  0.00000000E+00  0.00000000E+00  0.00000000E+00
  0.00000000E+00  0.00000000E+00  0.00000000E+00
  0.00000000E+00  0.00000000E+00  0.00000000E+00
  0.00000000E+00  0.00000000E+00  0.00000000E+00
  0.00000000E+00  0.00000000E+00  0.00000000E+00
  0.00000000E+00  0.00000000E+00  0.00000000E+00
  0.00000000E+00  0.00000000E+00  0.00000000E+00
  0.00000000E+00  0.00000000E+00  0.00000000E+00
  0.00000000E+00  0.00000000E+00  0.00000000E+00
  0.00000000E+00  0.00000000E+00  0.00000000E+00
  0.00000000E+00  0.00000000E+00  0.00000000E+00
  0.00000000E+00  0.00000000E+00  0.00000000E+00
  0.00000000E+00  0.00000000E+00  0.00000000E+00
  0.00000000E+00  0.00000000E+00  0.00000000E+00
  0.00000000E+00  0.00000000E+00  0.00000000E+00
  0.00000000E+00  0.00000000E+00  0.00000000E+00
