Ca1In1Rh1   [ORC,ORC,oP12] (STD_PRIM doi
   1.00000000000000     
     4.3297218683911298    0.0000000000000000    0.0000000000000000
     0.0000000000000000    7.2798545126888374    0.0000000000000000
     0.0000000000000000    0.0000000000000000    8.3448345463013247
   4   4   4
Direct
  0.2500000000000000  0.0248060074207744  0.3234086836138628
  0.7500000000000000  0.4751939925792257  0.8234086836138627
  0.7500000000000000  0.9751939925792256  0.6765913163861373
  0.2500000000000000  0.5248060074207744  0.1765913163861373
  0.2500000000000000  0.1503146969302270  0.9339131086576918
  0.7500000000000000  0.3496853030697729  0.4339131086576917
  0.7500000000000000  0.8496853030697730  0.0660868913423082
  0.2500000000000000  0.6503146969302270  0.5660868913423082
  0.2500000000000000  0.2761954922433288  0.6242918979039150
  0.7500000000000000  0.2238045077566711  0.1242918979039150
  0.7500000000000000  0.7238045077566710  0.3757081020960850
  0.2500000000000000  0.7761954922433290  0.8757081020960850
 
  0.00000000E+00  0.00000000E+00  0.00000000E+00
  0.00000000E+00  0.00000000E+00  0.00000000E+00
  0.00000000E+00  0.00000000E+00  0.00000000E+00
  0.00000000E+00  0.00000000E+00  0.00000000E+00
  0.00000000E+00  0.00000000E+00  0.00000000E+00
  0.00000000E+00  0.00000000E+00  0.00000000E+00
  0.00000000E+00  0.00000000E+00  0.00000000E+00
  0.00000000E+00  0.00000000E+00  0.00000000E+00
  0.00000000E+00  0.00000000E+00  0.00000000E+00
  0.00000000E+00  0.00000000E+00  0.00000000E+00
  0.00000000E+00  0.00000000E+00  0.00000000E+00
  0.00000000E+00  0.00000000E+00  0.00000000E+00
