Ga2Ru1   [ORCF,ORCF1,oF24] (STD_PRIM doi
   1.00000000000000     
     0.0000000000000000    4.1081120389013677    4.3643767899221384
     2.3802540692784109    0.0000000000000000    4.3643767899221384
     2.3802540692784109    4.1081120389013677    0.0000000000000000
   4   2
Direct
  0.6698449405056542  0.3301550594943458  0.6698449405056542
  0.3301550594943458  0.6698449405056542  0.3301550594943458
  0.0801550594943458  0.4198449405056542  0.0801550594943458
  0.4198449405056542  0.0801550594943458  0.4198449405056542
 -0.0000000000000000  0.0000000000000000 -0.0000000000000000
  0.7500000000000000  0.7500000000000000  0.7500000000000000
 
  0.00000000E+00  0.00000000E+00  0.00000000E+00
  0.00000000E+00  0.00000000E+00  0.00000000E+00
  0.00000000E+00  0.00000000E+00  0.00000000E+00
  0.00000000E+00  0.00000000E+00  0.00000000E+00
  0.00000000E+00  0.00000000E+00  0.00000000E+00
  0.00000000E+00  0.00000000E+00  0.00000000E+00
