Ir2S3Sn3   [CUB,CUB,cP32] (STD_PRIM doi:
   1.00000000000000     
     8.9355271904531151   -0.0000000000000000    0.0000000000000000
     0.0000000000000000    8.9355271904531151   -0.0000000000000000
     0.0000000000000000    0.0000000000000000    8.9355271904531151
   8  12  12
Direct
  0.2793626488373401  0.2793626488373401  0.2793626488373401
  0.7206373511626599  0.7206373511626599  0.2793626488373401
  0.7206373511626599  0.2793626488373401  0.7206373511626599
  0.2793626488373401  0.7206373511626599  0.7206373511626599
  0.7206373511626599  0.7206373511626599  0.7206373511626599
  0.2793626488373401  0.2793626488373401  0.7206373511626599
  0.2793626488373401  0.7206373511626599  0.2793626488373401
  0.7206373511626599  0.2793626488373401  0.2793626488373401
  0.5000000000000000  0.6259196288398200  0.8146804185609702
  0.5000000000000000  0.3740803711601800  0.8146804185609702
  0.5000000000000000  0.6259196288398200  0.1853195814390299
  0.5000000000000000  0.3740803711601800  0.1853195814390299
  0.8146804185609702  0.5000000000000000  0.6259196288398200
  0.8146804185609702  0.5000000000000000  0.3740803711601800
  0.1853195814390299  0.5000000000000000  0.6259196288398200
  0.1853195814390299  0.5000000000000000  0.3740803711601800
  0.6259196288398200  0.8146804185609702  0.5000000000000000
  0.3740803711601800  0.8146804185609702  0.5000000000000000
  0.6259196288398200  0.1853195814390299  0.5000000000000000
  0.3740803711601800  0.1853195814390299  0.5000000000000000
  0.0000000000000000  0.1636668692249890  0.3269905895916835
  0.0000000000000000  0.8363331307750110  0.3269905895916835
 -0.0000000000000000  0.1636668692249890  0.6730094104083164
 -0.0000000000000000  0.8363331307750110  0.6730094104083164
  0.3269905895916835 -0.0000000000000000  0.1636668692249890
  0.3269905895916835 -0.0000000000000000  0.8363331307750110
  0.6730094104083164  0.0000000000000000  0.1636668692249890
  0.6730094104083164  0.0000000000000000  0.8363331307750110
  0.1636668692249890  0.3269905895916835 -0.0000000000000000
  0.8363331307750110  0.3269905895916835 -0.0000000000000000
  0.1636668692249890  0.6730094104083164  0.0000000000000000
  0.8363331307750110  0.6730094104083164  0.0000000000000000
 
  0.00000000E+00  0.00000000E+00  0.00000000E+00
  0.00000000E+00  0.00000000E+00  0.00000000E+00
  0.00000000E+00  0.00000000E+00  0.00000000E+00
  0.00000000E+00  0.00000000E+00  0.00000000E+00
  0.00000000E+00  0.00000000E+00  0.00000000E+00
  0.00000000E+00  0.00000000E+00  0.00000000E+00
  0.00000000E+00  0.00000000E+00  0.00000000E+00
  0.00000000E+00  0.00000000E+00  0.00000000E+00
  0.00000000E+00  0.00000000E+00  0.00000000E+00
  0.00000000E+00  0.00000000E+00  0.00000000E+00
  0.00000000E+00  0.00000000E+00  0.00000000E+00
  0.00000000E+00  0.00000000E+00  0.00000000E+00
  0.00000000E+00  0.00000000E+00  0.00000000E+00
  0.00000000E+00  0.00000000E+00  0.00000000E+00
  0.00000000E+00  0.00000000E+00  0.00000000E+00
  0.00000000E+00  0.00000000E+00  0.00000000E+00
  0.00000000E+00  0.00000000E+00  0.00000000E+00
  0.00000000E+00  0.00000000E+00  0.00000000E+00
  0.00000000E+00  0.00000000E+00  0.00000000E+00
  0.00000000E+00  0.00000000E+00  0.00000000E+00
  0.00000000E+00  0.00000000E+00  0.00000000E+00
  0.00000000E+00  0.00000000E+00  0.00000000E+00
  0.00000000E+00  0.00000000E+00  0.00000000E+00
  0.00000000E+00  0.00000000E+00  0.00000000E+00
  0.00000000E+00  0.00000000E+00  0.00000000E+00
  0.00000000E+00  0.00000000E+00  0.00000000E+00
  0.00000000E+00  0.00000000E+00  0.00000000E+00
  0.00000000E+00  0.00000000E+00  0.00000000E+00
  0.00000000E+00  0.00000000E+00  0.00000000E+00
  0.00000000E+00  0.00000000E+00  0.00000000E+00
  0.00000000E+00  0.00000000E+00  0.00000000E+00
  0.00000000E+00  0.00000000E+00  0.00000000E+00
