Mo1Se2   [HEX,HEX,hP6] (STD_PRIM doi:10.
   1.00000000000000     
     1.6675276408830193   -2.8882544909317942   -0.0000000000000000
     1.6675276408830193    2.8882544909317942    0.0000000000000000
     0.0000000000000000    0.0000000000000000   13.5907178782270694
   2   4
Direct
  0.3333413432975417  0.6666586567024584  0.2500000000000000
  0.6666586567024584  0.3333413432975417  0.7500000000000000
  0.6666747358186017  0.3333252641813984  0.1263966818161410
  0.3333252641813984  0.6666747358186017  0.6263966818161411
  0.3333252641813984  0.6666747358186017  0.8736033181838589
  0.6666747358186017  0.3333252641813984  0.3736033181838589
 
  0.00000000E+00  0.00000000E+00  0.00000000E+00
  0.00000000E+00  0.00000000E+00  0.00000000E+00
  0.00000000E+00  0.00000000E+00  0.00000000E+00
  0.00000000E+00  0.00000000E+00  0.00000000E+00
  0.00000000E+00  0.00000000E+00  0.00000000E+00
  0.00000000E+00  0.00000000E+00  0.00000000E+00
