Au1Ho1In1   [HEX,HEX,hP9] (STD_PRIM doi:
   1.00000000000000     
     3.8842578453917365   -6.7277319379165075    0.0000000000000000
     3.8842051605589321    6.7277015203141026    0.0000000000000000
     0.0000000000000000    0.0000000000000000    3.9178915747152638
   3   3   3
Direct
  0.6666807087885470  0.3333628415872572  0.0000000000000000
  0.3333178672012898  0.6666371584127427  0.0000000000000000
 -0.0000012869716155 -0.0000000000000000  0.5000000000000000
  0.9999967727282506  0.4023861098032265  0.5000000000000000
  0.5976106629250170  0.5976138901967735  0.5000000000000000
  0.4023928360235491  0.0000000000000000  0.5000000000000000
  0.0000127124231657  0.7370794881191974  0.0000000000000000
  0.2629332243039753  0.2629205118808025  0.0000000000000000
  0.7370565025778280  0.0000000000000000  0.0000000000000000
 
  0.00000000E+00  0.00000000E+00  0.00000000E+00
  0.00000000E+00  0.00000000E+00  0.00000000E+00
  0.00000000E+00  0.00000000E+00  0.00000000E+00
  0.00000000E+00  0.00000000E+00  0.00000000E+00
  0.00000000E+00  0.00000000E+00  0.00000000E+00
  0.00000000E+00  0.00000000E+00  0.00000000E+00
  0.00000000E+00  0.00000000E+00  0.00000000E+00
  0.00000000E+00  0.00000000E+00  0.00000000E+00
  0.00000000E+00  0.00000000E+00  0.00000000E+00
