F3K1Mg1   [CUB,CUB,cP5] (STD_PRIM doi:10
   1.00000000000000     
     4.0548471741798329    0.0000000000000000   -0.0000000000000000
     0.0000000000000000    4.0548471741798329   -0.0000000000000000
     0.0000000000000000    0.0000000000000000    4.0548471741798329
   3   1   1
Direct
  0.5000000000000000  0.5000000000000000  0.0000000000000000
  0.0000000000000000  0.5000000000000000  0.5000000000000000
  0.5000000000000000  0.0000000000000000  0.5000000000000000
  0.0000000000000000  0.0000000000000000  0.0000000000000000
  0.5000000000000000  0.5000000000000000  0.5000000000000000
 
  0.00000000E+00  0.00000000E+00  0.00000000E+00
  0.00000000E+00  0.00000000E+00  0.00000000E+00
  0.00000000E+00  0.00000000E+00  0.00000000E+00
  0.00000000E+00  0.00000000E+00  0.00000000E+00
  0.00000000E+00  0.00000000E+00  0.00000000E+00
