Au1Zr2 #139 - (Au1Zr2_ICSD_108025) - Au1
   1.00000000000000     
    -1.6457261492144803    1.6457261492144803    5.8853421437015925
     1.6457261492144803   -1.6457261492144803    5.8853421437015925
     1.6457261492144803    1.6457261492144803   -5.8853421437015925
   1   2
Direct
  0.0000000000000000  0.0000000000000000  0.0000000000000000
  0.6610416131240505  0.6610416131240505  0.0000000000000000
  0.3389583868759494  0.3389583868759494  0.0000000000000000
 
  0.00000000E+00  0.00000000E+00  0.00000000E+00
  0.00000000E+00  0.00000000E+00  0.00000000E+00
  0.00000000E+00  0.00000000E+00  0.00000000E+00
