Au4In2K1   [BCT,BCT1,tI28] (STD_PRIM doi
   1.00000000000000     
    -4.4119160512528008    4.4119160512528008    4.2590607640348095
     4.4119160512528008   -4.4119160512528008    4.2590607640348095
     4.4119160512528008    4.4119160512528008   -4.2590607640348095
   8   4   2
Direct
  0.8155984720008858  0.3155984720008858  0.8010429705127717
  0.5145555014881212  0.0145555014881212  0.1989570294872283
  0.0145555014881212  0.8155984720008858  0.5000000000000000
  0.3155984720008858  0.5145555014881212  0.5000000000000000
  0.6844015279991142  0.4854444985118789  0.5000000000000000
  0.9854444985118788  0.1844015279991143  0.5000000000000000
  0.4854444985118789  0.9854444985118788  0.8010429705127717
  0.1844015279991143  0.6844015279991142  0.1989570294872283
  0.1457210796953574  0.6457210796953574  0.7914421593907149
  0.8542789203046426  0.3542789203046425  0.2085578406092851
  0.3542789203046425  0.1457210796953574  0.5000000000000000
  0.6457210796953574  0.8542789203046426  0.5000000000000000
  0.7500000000000000  0.7500000000000000  0.0000000000000000
  0.2500000000000000  0.2500000000000000  0.0000000000000000
 
  0.00000000E+00  0.00000000E+00  0.00000000E+00
  0.00000000E+00  0.00000000E+00  0.00000000E+00
  0.00000000E+00  0.00000000E+00  0.00000000E+00
  0.00000000E+00  0.00000000E+00  0.00000000E+00
  0.00000000E+00  0.00000000E+00  0.00000000E+00
  0.00000000E+00  0.00000000E+00  0.00000000E+00
  0.00000000E+00  0.00000000E+00  0.00000000E+00
  0.00000000E+00  0.00000000E+00  0.00000000E+00
  0.00000000E+00  0.00000000E+00  0.00000000E+00
  0.00000000E+00  0.00000000E+00  0.00000000E+00
  0.00000000E+00  0.00000000E+00  0.00000000E+00
  0.00000000E+00  0.00000000E+00  0.00000000E+00
  0.00000000E+00  0.00000000E+00  0.00000000E+00
  0.00000000E+00  0.00000000E+00  0.00000000E+00
