Al1Zr1   [ORCC,ORCC,oS8] (STD_PRIM doi:1
   1.00000000000000     
     1.6804528875590898   -5.4696895463036155   -0.0000000000000000
     1.6804528875590898    5.4696895463036155    0.0000000000000000
     0.0000000000000000    0.0000000000000000    4.2951899097212767
   2   2
Direct
  0.4289420885598965  0.5710579114401035  0.7500000000000000
  0.5710579114401035  0.4289420885598965  0.2500000000000000
  0.1600433778440563  0.8399566221559437  0.7500000000000000
  0.8399566221559437  0.1600433778440563  0.2500000000000000
 
  0.00000000E+00  0.00000000E+00  0.00000000E+00
  0.00000000E+00  0.00000000E+00  0.00000000E+00
  0.00000000E+00  0.00000000E+00  0.00000000E+00
  0.00000000E+00  0.00000000E+00  0.00000000E+00
