As1Pd5Tl1   [TET,TET,tP7] (STD_PRIM doi:
   1.00000000000000     
     4.0526872854379601    0.0000000000000000   -0.0000000000000000
     0.0000000000000000    4.0526872854379601    0.0000000000000000
     0.0000000000000000    0.0000000000000000    7.1553685187393272
   1   5   1
Direct
  0.0000000000000000  0.0000000000000000  0.5000000000000000
  0.0000000000000000  0.0000000000000000  0.0000000000000000
  0.0000000000000000  0.5000000000000000  0.2934696260900637
  0.5000000000000000 -0.0000000000000000  0.2934696260900637
 -0.0000000000000000  0.5000000000000000  0.7065303739099363
  0.5000000000000000 -0.0000000000000000  0.7065303739099363
  0.5000000000000000  0.5000000000000000  0.0000000000000000
 
  0.00000000E+00  0.00000000E+00  0.00000000E+00
  0.00000000E+00  0.00000000E+00  0.00000000E+00
  0.00000000E+00  0.00000000E+00  0.00000000E+00
  0.00000000E+00  0.00000000E+00  0.00000000E+00
  0.00000000E+00  0.00000000E+00  0.00000000E+00
  0.00000000E+00  0.00000000E+00  0.00000000E+00
  0.00000000E+00  0.00000000E+00  0.00000000E+00
