Ir1Mg3   [HEX,HEX,hP24] (STD_PRIM doi:10
   1.00000000000000     
     3.9373259485157703   -6.8208055851768119    0.0000000000000000
     3.9373259485157703    6.8208055851768119    0.0000000000000000
     0.0000000000000000    0.0000000000000000    8.2086655926971499
   6  18
Direct
  0.6720354804571568  0.0000152130905472  0.7409974421481732
  0.0000152130905472  0.6720354804571568  0.7409974421481732
  0.3280008519538390  0.3280008519538390  0.7409746931412151
  0.3279645195428432  0.9999847869094528  0.2409974421481731
  0.9999847869094528  0.3279645195428432  0.2409974421481731
  0.6719991480461610  0.6719991480461610  0.2409746931412151
  0.0000011212823752  0.0000011212823752  0.3059576516579042
  0.9999988787176248  0.9999988787176248  0.8059576516579041
  0.3333276017105101  0.6666681495542760  0.1975320709082508
  0.6666723982894899  0.3333318504457241  0.6975320709082508
  0.3333318504457241  0.6666723982894899  0.6975320709082508
  0.6666681495542760  0.3333276017105101  0.1975320709082508
  0.7146332896008604  0.9999972719466135  0.0703966232127023
  0.9999972719466135  0.7146332896008604  0.0703966232127023
  0.2853823884560991  0.2853823884560991  0.0703917311423712
  0.2853667103991397  0.0000027280533866  0.5703966232127022
  0.0000027280533866  0.2853667103991397  0.5703966232127022
  0.7146176115439010  0.7146176115439010  0.5703917311423712
  0.6276007091210913  0.9999929501814809  0.4125773329326720
  0.9999929501814809  0.6276007091210913  0.4125773329326720
  0.3723927198176921  0.3723927198176921  0.4125689856549005
  0.3723992908789087  0.0000070498185190  0.9125773329326720
  0.0000070498185190  0.3723992908789087  0.9125773329326720
  0.6276072801823079  0.6276072801823079  0.9125689856549004
 
  0.00000000E+00  0.00000000E+00  0.00000000E+00
  0.00000000E+00  0.00000000E+00  0.00000000E+00
  0.00000000E+00  0.00000000E+00  0.00000000E+00
  0.00000000E+00  0.00000000E+00  0.00000000E+00
  0.00000000E+00  0.00000000E+00  0.00000000E+00
  0.00000000E+00  0.00000000E+00  0.00000000E+00
  0.00000000E+00  0.00000000E+00  0.00000000E+00
  0.00000000E+00  0.00000000E+00  0.00000000E+00
  0.00000000E+00  0.00000000E+00  0.00000000E+00
  0.00000000E+00  0.00000000E+00  0.00000000E+00
  0.00000000E+00  0.00000000E+00  0.00000000E+00
  0.00000000E+00  0.00000000E+00  0.00000000E+00
  0.00000000E+00  0.00000000E+00  0.00000000E+00
  0.00000000E+00  0.00000000E+00  0.00000000E+00
  0.00000000E+00  0.00000000E+00  0.00000000E+00
  0.00000000E+00  0.00000000E+00  0.00000000E+00
  0.00000000E+00  0.00000000E+00  0.00000000E+00
  0.00000000E+00  0.00000000E+00  0.00000000E+00
  0.00000000E+00  0.00000000E+00  0.00000000E+00
  0.00000000E+00  0.00000000E+00  0.00000000E+00
  0.00000000E+00  0.00000000E+00  0.00000000E+00
  0.00000000E+00  0.00000000E+00  0.00000000E+00
  0.00000000E+00  0.00000000E+00  0.00000000E+00
  0.00000000E+00  0.00000000E+00  0.00000000E+00
