N1Re3   [HEX,HEX,hP4] (STD_PRIM doi:10.1
   1.00000000000000     
     1.4222839742385971   -2.4634681061722357    0.0000000000000000
     1.4222639971990247    2.4634565724230604    0.0000000000000000
     0.0000000000000000    0.0000000000000000    7.1926918491056098
   1   3
Direct
  0.3333346566521249  0.6666693133042568  0.0000000000000000
  0.3333264138976875  0.6666528277953820  0.5000000000000000
  0.6666694647250939  0.3333389294501806  0.1983822065103838
  0.6666694647250939  0.3333389294501806  0.8016177934896161
 
  0.00000000E+00  0.00000000E+00  0.00000000E+00
  0.00000000E+00  0.00000000E+00  0.00000000E+00
  0.00000000E+00  0.00000000E+00  0.00000000E+00
  0.00000000E+00  0.00000000E+00  0.00000000E+00
