Ho2O7Ru2   [FCC,FCC,cF88] (STD_PRIM doi:
   1.22474500000000     
    -0.0000000000000000    4.1769483552533782    4.1769483552533782
     4.1769483552533782   -0.0000000000000000    4.1769483552533782
     4.1769483552533782    4.1769483552533782   -0.0000000000000000
   4  14   4
Direct
  0.5000000000000000  0.5000000000000000  0.5000000000000000
  0.0000000000000000 -0.0000000000000000  0.5000000000000000
  0.0000000000000000  0.5000000000000000 -0.0000000000000000
 -0.0000000000000000  0.5000000000000000  0.5000000000000000
  0.4111915962700598  0.3388084037299402  0.3388084037299402
  0.8388084037299403  0.9111915962700597  0.9111915962700597
  0.4111915962700598  0.3388084037299402  0.9111915962700597
  0.8388084037299403  0.9111915962700597  0.3388084037299402
  0.4111915962700598  0.9111915962700597  0.3388084037299402
  0.8388084037299403  0.3388084037299402  0.9111915962700597
  0.1611915962700598  0.0888084037299402  0.6611915962700597
  0.5888084037299403  0.6611915962700597  0.0888084037299402
  0.1611915962700598  0.0888084037299402  0.0888084037299402
  0.5888084037299403  0.6611915962700597  0.6611915962700597
  0.5888084037299403  0.0888084037299402  0.6611915962700597
  0.1611915962700598  0.6611915962700597  0.0888084037299402
  0.8750000000000000  0.3750000000000000  0.3750000000000000
  0.1250000000000000  0.6250000000000000  0.6250000000000000
 -0.0000000000000000  0.0000000000000000  0.0000000000000000
  0.5000000000000000  0.5000000000000000 -0.0000000000000000
  0.5000000000000000  0.0000000000000000  0.5000000000000000
  0.5000000000000000  0.0000000000000000 -0.0000000000000000
 
  0.00000000E+00  0.00000000E+00  0.00000000E+00
  0.00000000E+00  0.00000000E+00  0.00000000E+00
  0.00000000E+00  0.00000000E+00  0.00000000E+00
  0.00000000E+00  0.00000000E+00  0.00000000E+00
  0.00000000E+00  0.00000000E+00  0.00000000E+00
  0.00000000E+00  0.00000000E+00  0.00000000E+00
  0.00000000E+00  0.00000000E+00  0.00000000E+00
  0.00000000E+00  0.00000000E+00  0.00000000E+00
  0.00000000E+00  0.00000000E+00  0.00000000E+00
  0.00000000E+00  0.00000000E+00  0.00000000E+00
  0.00000000E+00  0.00000000E+00  0.00000000E+00
  0.00000000E+00  0.00000000E+00  0.00000000E+00
  0.00000000E+00  0.00000000E+00  0.00000000E+00
  0.00000000E+00  0.00000000E+00  0.00000000E+00
  0.00000000E+00  0.00000000E+00  0.00000000E+00
  0.00000000E+00  0.00000000E+00  0.00000000E+00
  0.00000000E+00  0.00000000E+00  0.00000000E+00
  0.00000000E+00  0.00000000E+00  0.00000000E+00
  0.00000000E+00  0.00000000E+00  0.00000000E+00
  0.00000000E+00  0.00000000E+00  0.00000000E+00
  0.00000000E+00  0.00000000E+00  0.00000000E+00
  0.00000000E+00  0.00000000E+00  0.00000000E+00
