Ca1In1Pt1   [ORC,ORC,oP12] (STD_PRIM doi
   1.00000000000000     
     4.3747618012081642    0.0000000000000000    0.0000000000000000
    -0.0000000000000000    7.3453397926262323    0.0000000000000000
     0.0000000000000000    0.0000000000000000    8.4638916324769582
   4   4   4
Direct
  0.2500000000000000  0.0301793037958670  0.3223733548190427
  0.7500000000000000  0.4698206962041330  0.8223733548190426
  0.7500000000000000  0.9698206962041330  0.6776266451809574
  0.2500000000000000  0.5301793037958670  0.1776266451809573
  0.2500000000000000  0.1486215771138615  0.9347514922794660
  0.7500000000000000  0.3513784228861385  0.4347514922794659
  0.7500000000000000  0.8513784228861385  0.0652485077205341
  0.2500000000000000  0.6486215771138615  0.5652485077205340
  0.2500000000000000  0.2685657403363654  0.6236161191076096
  0.7500000000000000  0.2314342596636346  0.1236161191076097
  0.7500000000000000  0.7314342596636346  0.3763838808923903
  0.2500000000000000  0.7685657403363654  0.8763838808923904
 
  0.00000000E+00  0.00000000E+00  0.00000000E+00
  0.00000000E+00  0.00000000E+00  0.00000000E+00
  0.00000000E+00  0.00000000E+00  0.00000000E+00
  0.00000000E+00  0.00000000E+00  0.00000000E+00
  0.00000000E+00  0.00000000E+00  0.00000000E+00
  0.00000000E+00  0.00000000E+00  0.00000000E+00
  0.00000000E+00  0.00000000E+00  0.00000000E+00
  0.00000000E+00  0.00000000E+00  0.00000000E+00
  0.00000000E+00  0.00000000E+00  0.00000000E+00
  0.00000000E+00  0.00000000E+00  0.00000000E+00
  0.00000000E+00  0.00000000E+00  0.00000000E+00
  0.00000000E+00  0.00000000E+00  0.00000000E+00
