Os2Sc1   [HEX,HEX,hP12] (STD_PRIM doi:10
   1.00000000000000     
     2.6036844379544450   -4.5097137334135171    0.0000000000000000
     2.6036483970429010    4.5096929251835345   -0.0000000000000000
    -0.0000000000000000    0.0000000000000000    8.6708271969153987
   8   4
Direct
 -0.0000000000000000 -0.0000000000000000 -0.0000000000000000
 -0.0000000000000000 -0.0000000000000000  0.5000000000000000
  0.6550382578103744  0.8275284433591683  0.2500000000000000
  0.1724901855487940  0.8275284433591683  0.2500000000000000
  0.1724800157835180  0.3449600315670361  0.2500000000000000
  0.3449617421896256  0.1724715566408316  0.7500000000000000
  0.8275098144512061  0.1724715566408316  0.7500000000000000
  0.8275199842164820  0.6550399684329640  0.7500000000000000
  0.6666731614266520  0.3333463228533112  0.0661907231916438
  0.3333268385733480  0.6666536771466889  0.5661907231916439
  0.3333268385733480  0.6666536771466889  0.9338092768083561
  0.6666731614266520  0.3333463228533112  0.4338092768083562
 
  0.00000000E+00  0.00000000E+00  0.00000000E+00
  0.00000000E+00  0.00000000E+00  0.00000000E+00
  0.00000000E+00  0.00000000E+00  0.00000000E+00
  0.00000000E+00  0.00000000E+00  0.00000000E+00
  0.00000000E+00  0.00000000E+00  0.00000000E+00
  0.00000000E+00  0.00000000E+00  0.00000000E+00
  0.00000000E+00  0.00000000E+00  0.00000000E+00
  0.00000000E+00  0.00000000E+00  0.00000000E+00
  0.00000000E+00  0.00000000E+00  0.00000000E+00
  0.00000000E+00  0.00000000E+00  0.00000000E+00
  0.00000000E+00  0.00000000E+00  0.00000000E+00
  0.00000000E+00  0.00000000E+00  0.00000000E+00
