Au1Cs1   [CUB,CUB,cP2] (STD_PRIM doi:10.
   1.00000000000000     
     4.3281926175471712   -0.0000000000000000   -0.0000000000000000
    -0.0000000000000000    4.3281926175471712   -0.0000000000000000
     0.0000000000000000   -0.0000000000000000    4.3281926175471712
   1   1
Direct
  0.5000000000000000  0.5000000000000000  0.5000000000000000
  0.0000000000000000  0.0000000000000000  0.0000000000000000
 
  0.00000000E+00  0.00000000E+00  0.00000000E+00
  0.00000000E+00  0.00000000E+00  0.00000000E+00
