K8Sn46   [CUB,CUB,cP54] (STD_PRIM doi:10
   1.00000000000000     
    12.7883686558840868    0.0000000000000000    0.0000000000000000
     0.0000000000000000   12.7883686558840868    0.0000000000000000
     0.0000000000000000    0.0000000000000000   12.7883686558840868
   8  46
Direct
  0.0000000000000000  0.0000000000000000  0.0000000000000000
  0.5000000000000000  0.5000000000000000  0.5000000000000000
  0.2500000000000000  0.5000000000000000  0.0000000000000000
  0.7500000000000000  0.5000000000000000  0.0000000000000000
  0.0000000000000000  0.2500000000000000  0.5000000000000000
  0.0000000000000000  0.7500000000000000  0.5000000000000000
  0.5000000000000000  0.0000000000000000  0.2500000000000000
  0.5000000000000000  0.0000000000000000  0.7500000000000000
  0.2500000000000000  0.0000000000000000  0.5000000000000000
  0.7500000000000000  0.0000000000000000  0.5000000000000000
  0.5000000000000000  0.2500000000000000  0.0000000000000000
  0.5000000000000000  0.7500000000000000  0.0000000000000000
  0.0000000000000000  0.5000000000000000  0.2500000000000000
  0.0000000000000000  0.5000000000000000  0.7500000000000000
  0.1837195550804012  0.1837195550804012  0.1837195550804012
  0.8162804449195988  0.8162804449195988  0.1837195550804012
  0.8162804449195988  0.1837195550804012  0.8162804449195988
  0.1837195550804012  0.8162804449195988  0.8162804449195988
  0.6837195550804012  0.6837195550804012  0.3162804449195988
  0.3162804449195988  0.3162804449195988  0.3162804449195988
  0.6837195550804012  0.3162804449195988  0.6837195550804012
  0.3162804449195988  0.6837195550804012  0.6837195550804012
  0.8162804449195988  0.8162804449195988  0.8162804449195988
  0.1837195550804012  0.1837195550804012  0.8162804449195988
  0.1837195550804012  0.8162804449195988  0.1837195550804012
  0.8162804449195988  0.1837195550804012  0.1837195550804012
  0.3162804449195988  0.3162804449195988  0.6837195550804012
  0.6837195550804012  0.6837195550804012  0.6837195550804012
  0.3162804449195988  0.6837195550804012  0.3162804449195988
  0.6837195550804012  0.3162804449195988  0.3162804449195988
  0.0000000000000000  0.3079884510187441  0.1173365206853632
  0.0000000000000000  0.6920115489812559  0.1173365206853632
  0.0000000000000000  0.3079884510187441  0.8826634793146368
  0.0000000000000000  0.6920115489812559  0.8826634793146368
  0.1173365206853632  0.0000000000000000  0.3079884510187441
  0.1173365206853632  0.0000000000000000  0.6920115489812559
  0.8826634793146368  0.0000000000000000  0.3079884510187441
  0.8826634793146368  0.0000000000000000  0.6920115489812559
  0.3079884510187441  0.1173365206853632  0.0000000000000000
  0.6920115489812559  0.1173365206853632  0.0000000000000000
  0.3079884510187441  0.8826634793146368  0.0000000000000000
  0.6920115489812559  0.8826634793146368  0.0000000000000000
  0.8079884510187441  0.5000000000000000  0.3826634793146368
  0.1920115489812559  0.5000000000000000  0.3826634793146368
  0.8079884510187441  0.5000000000000000  0.6173365206853632
  0.1920115489812559  0.5000000000000000  0.6173365206853632
  0.5000000000000000  0.6173365206853632  0.1920115489812559
  0.5000000000000000  0.6173365206853632  0.8079884510187441
  0.5000000000000000  0.3826634793146368  0.1920115489812559
  0.5000000000000000  0.3826634793146368  0.8079884510187441
  0.6173365206853632  0.8079884510187441  0.5000000000000000
  0.6173365206853632  0.1920115489812559  0.5000000000000000
  0.3826634793146368  0.8079884510187441  0.5000000000000000
  0.3826634793146368  0.1920115489812559  0.5000000000000000
 
  0.00000000E+00  0.00000000E+00  0.00000000E+00
  0.00000000E+00  0.00000000E+00  0.00000000E+00
  0.00000000E+00  0.00000000E+00  0.00000000E+00
  0.00000000E+00  0.00000000E+00  0.00000000E+00
  0.00000000E+00  0.00000000E+00  0.00000000E+00
  0.00000000E+00  0.00000000E+00  0.00000000E+00
  0.00000000E+00  0.00000000E+00  0.00000000E+00
  0.00000000E+00  0.00000000E+00  0.00000000E+00
  0.00000000E+00  0.00000000E+00  0.00000000E+00
  0.00000000E+00  0.00000000E+00  0.00000000E+00
  0.00000000E+00  0.00000000E+00  0.00000000E+00
  0.00000000E+00  0.00000000E+00  0.00000000E+00
  0.00000000E+00  0.00000000E+00  0.00000000E+00
  0.00000000E+00  0.00000000E+00  0.00000000E+00
  0.00000000E+00  0.00000000E+00  0.00000000E+00
  0.00000000E+00  0.00000000E+00  0.00000000E+00
  0.00000000E+00  0.00000000E+00  0.00000000E+00
  0.00000000E+00  0.00000000E+00  0.00000000E+00
  0.00000000E+00  0.00000000E+00  0.00000000E+00
  0.00000000E+00  0.00000000E+00  0.00000000E+00
  0.00000000E+00  0.00000000E+00  0.00000000E+00
  0.00000000E+00  0.00000000E+00  0.00000000E+00
  0.00000000E+00  0.00000000E+00  0.00000000E+00
  0.00000000E+00  0.00000000E+00  0.00000000E+00
  0.00000000E+00  0.00000000E+00  0.00000000E+00
  0.00000000E+00  0.00000000E+00  0.00000000E+00
  0.00000000E+00  0.00000000E+00  0.00000000E+00
  0.00000000E+00  0.00000000E+00  0.00000000E+00
  0.00000000E+00  0.00000000E+00  0.00000000E+00
  0.00000000E+00  0.00000000E+00  0.00000000E+00
  0.00000000E+00  0.00000000E+00  0.00000000E+00
  0.00000000E+00  0.00000000E+00  0.00000000E+00
  0.00000000E+00  0.00000000E+00  0.00000000E+00
  0.00000000E+00  0.00000000E+00  0.00000000E+00
  0.00000000E+00  0.00000000E+00  0.00000000E+00
  0.00000000E+00  0.00000000E+00  0.00000000E+00
  0.00000000E+00  0.00000000E+00  0.00000000E+00
  0.00000000E+00  0.00000000E+00  0.00000000E+00
  0.00000000E+00  0.00000000E+00  0.00000000E+00
  0.00000000E+00  0.00000000E+00  0.00000000E+00
  0.00000000E+00  0.00000000E+00  0.00000000E+00
  0.00000000E+00  0.00000000E+00  0.00000000E+00
  0.00000000E+00  0.00000000E+00  0.00000000E+00
  0.00000000E+00  0.00000000E+00  0.00000000E+00
  0.00000000E+00  0.00000000E+00  0.00000000E+00
  0.00000000E+00  0.00000000E+00  0.00000000E+00
  0.00000000E+00  0.00000000E+00  0.00000000E+00
  0.00000000E+00  0.00000000E+00  0.00000000E+00
  0.00000000E+00  0.00000000E+00  0.00000000E+00
  0.00000000E+00  0.00000000E+00  0.00000000E+00
  0.00000000E+00  0.00000000E+00  0.00000000E+00
  0.00000000E+00  0.00000000E+00  0.00000000E+00
  0.00000000E+00  0.00000000E+00  0.00000000E+00
  0.00000000E+00  0.00000000E+00  0.00000000E+00
