Cu1La1 #62 - (Cu1La1_ICSD_628213) - Cu1L
   1.00000000000000     
     4.6378893439531463    0.0000000000000000    0.0000000000000000
     0.0000000000000000    5.7870207690360713    0.0000000000000000
     0.0000000000000000    0.0000000000000000    7.6089409941764456
   4   4
Direct
  0.7500000000000000  0.3886936236828899  0.0343250281556180
  0.2500000000000000  0.8886936236828898  0.4656749718443820
  0.2500000000000000  0.6113063763171102  0.9656749718443820
  0.7500000000000000  0.1113063763171101  0.5343250281556180
  0.7500000000000000  0.8833379119342654  0.1778086457514778
  0.2500000000000000  0.3833379119342655  0.3221913542485221
  0.2500000000000000  0.1166620880657345  0.8221913542485222
  0.7500000000000000  0.6166620880657346  0.6778086457514778
 
  0.00000000E+00  0.00000000E+00  0.00000000E+00
  0.00000000E+00  0.00000000E+00  0.00000000E+00
  0.00000000E+00  0.00000000E+00  0.00000000E+00
  0.00000000E+00  0.00000000E+00  0.00000000E+00
  0.00000000E+00  0.00000000E+00  0.00000000E+00
  0.00000000E+00  0.00000000E+00  0.00000000E+00
  0.00000000E+00  0.00000000E+00  0.00000000E+00
  0.00000000E+00  0.00000000E+00  0.00000000E+00
