Ir1P3   [BCC,BCC,cI32] (STD_PRIM doi:10.
   1.00000000000000     
    -4.0293058848214871    4.0293058848214871    4.0293058848214871
     4.0293058848214871   -4.0293058848214871    4.0293058848214871
     4.0293058848214871    4.0293058848214871   -4.0293058848214871
   4  12
Direct
  0.0000000000000000  0.0000000000000000  0.5000000000000000
  0.0000000000000000  0.5000000000000000  0.0000000000000000
  0.5000000000000000  0.0000000000000000  0.0000000000000000
  0.5000000000000000  0.5000000000000000  0.5000000000000000
  0.3547004114319989  0.1396404203020793  0.4943408317340783
  0.6452995885680011  0.1396404203020793  0.7849400088700733
  0.3547004114319989  0.8603595796979207  0.2150599911299267
  0.6452995885680011  0.8603595796979207  0.5056591682659217
  0.8603595796979207  0.2150599911299267  0.3547004114319989
  0.8603595796979207  0.5056591682659217  0.6452995885680011
  0.1396404203020793  0.4943408317340783  0.3547004114319989
  0.1396404203020793  0.7849400088700733  0.6452995885680011
  0.7849400088700733  0.6452995885680011  0.1396404203020793
  0.4943408317340783  0.3547004114319989  0.1396404203020793
  0.5056591682659217  0.6452995885680011  0.8603595796979207
  0.2150599911299267  0.3547004114319989  0.8603595796979207
 
  0.00000000E+00  0.00000000E+00  0.00000000E+00
  0.00000000E+00  0.00000000E+00  0.00000000E+00
  0.00000000E+00  0.00000000E+00  0.00000000E+00
  0.00000000E+00  0.00000000E+00  0.00000000E+00
  0.00000000E+00  0.00000000E+00  0.00000000E+00
  0.00000000E+00  0.00000000E+00  0.00000000E+00
  0.00000000E+00  0.00000000E+00  0.00000000E+00
  0.00000000E+00  0.00000000E+00  0.00000000E+00
  0.00000000E+00  0.00000000E+00  0.00000000E+00
  0.00000000E+00  0.00000000E+00  0.00000000E+00
  0.00000000E+00  0.00000000E+00  0.00000000E+00
  0.00000000E+00  0.00000000E+00  0.00000000E+00
  0.00000000E+00  0.00000000E+00  0.00000000E+00
  0.00000000E+00  0.00000000E+00  0.00000000E+00
  0.00000000E+00  0.00000000E+00  0.00000000E+00
  0.00000000E+00  0.00000000E+00  0.00000000E+00
