Er1Ga1Ir1   [ORC,ORC,oP12] (STD_PRIM doi
   1.00000000000000     
     4.2846809982667473   -0.0000000000000000    0.0000000000000000
    -0.0000000000000000    6.7522001474390470    0.0000000000000000
     0.0000000000000000    0.0000000000000000    7.7283715981207726
   4   4   4
Direct
  0.2500000000000000  0.9777733793206891  0.3110518759129436
  0.7500000000000000  0.5222266206793109  0.8110518759129436
  0.7500000000000000  0.0222266206793109  0.6889481240870564
  0.2500000000000000  0.4777733793206891  0.1889481240870563
  0.2500000000000000  0.3411052148670318  0.5720432743227339
  0.7500000000000000  0.1588947851329681  0.0720432743227339
  0.7500000000000000  0.6588947851329684  0.4279567256772661
  0.2500000000000000  0.8411052148670316  0.9279567256772661
  0.2500000000000000  0.2309062235462889  0.8942996891343146
  0.7500000000000000  0.2690937764537111  0.3942996891343145
  0.7500000000000000  0.7690937764537109  0.1057003108656855
  0.2500000000000000  0.7309062235462891  0.6057003108656854
 
  0.00000000E+00  0.00000000E+00  0.00000000E+00
  0.00000000E+00  0.00000000E+00  0.00000000E+00
  0.00000000E+00  0.00000000E+00  0.00000000E+00
  0.00000000E+00  0.00000000E+00  0.00000000E+00
  0.00000000E+00  0.00000000E+00  0.00000000E+00
  0.00000000E+00  0.00000000E+00  0.00000000E+00
  0.00000000E+00  0.00000000E+00  0.00000000E+00
  0.00000000E+00  0.00000000E+00  0.00000000E+00
  0.00000000E+00  0.00000000E+00  0.00000000E+00
  0.00000000E+00  0.00000000E+00  0.00000000E+00
  0.00000000E+00  0.00000000E+00  0.00000000E+00
  0.00000000E+00  0.00000000E+00  0.00000000E+00
