Hg2Th1   [HEX,HEX,hP6] (STD_PRIM doi:10.
   1.00000100000000     
     2.4807717672189473   -4.2968064004753437    0.0000000000000000
     2.4807717672189473    4.2968064004753437   -0.0000000000000000
     0.0000000000000000    0.0000000000000000    7.6580357971765940
   4   2
Direct
  0.3333287203056324  0.6666712796943676  0.4612915100218744
  0.6666712796943676  0.3333287203056324  0.9612915100218744
  0.6666712796943676  0.3333287203056324  0.5387084899781256
  0.3333287203056324  0.6666712796943676  0.0387084899781256
  0.9999970741609172  0.0000029258390829  0.2500000000000000
  0.0000029258390829  0.9999970741609172  0.7500000000000000
 
  0.00000000E+00  0.00000000E+00  0.00000000E+00
  0.00000000E+00  0.00000000E+00  0.00000000E+00
  0.00000000E+00  0.00000000E+00  0.00000000E+00
  0.00000000E+00  0.00000000E+00  0.00000000E+00
  0.00000000E+00  0.00000000E+00  0.00000000E+00
  0.00000000E+00  0.00000000E+00  0.00000000E+00
