Pt1Sc1Zn1   [ORCC,ORCC,oS12] (STD_PRIM d
   1.00000000000000     
     2.1054768194939069   -4.7221341270210395    0.0000000000000000
     2.1054768194939069    4.7221341270210395   -0.0000000000000000
     0.0000000000000000   -0.0000000000000000    5.3026129234352766
   2   2   2
Direct
  0.4030582234231465  0.5969417765768534  0.7500000000000000
  0.5969417765768534  0.4030582234231465  0.2500000000000000
  0.7082006187877855  0.2917993812122145  0.7500000000000000
  0.2917993812122145  0.7082006187877855  0.2500000000000000
  0.0000000000000000  0.0000000000000000  0.0000000000000000
 -0.0000000000000000 -0.0000000000000000  0.5000000000000000
 
  0.00000000E+00  0.00000000E+00  0.00000000E+00
  0.00000000E+00  0.00000000E+00  0.00000000E+00
  0.00000000E+00  0.00000000E+00  0.00000000E+00
  0.00000000E+00  0.00000000E+00  0.00000000E+00
  0.00000000E+00  0.00000000E+00  0.00000000E+00
  0.00000000E+00  0.00000000E+00  0.00000000E+00
