Mn3Nb6O11   [HEX,HEX,hP20] (STD_PRIM doi
   1.00000000000000     
     3.0753047454492841   -5.3265840678758360    0.0000000000000000
     3.0754037656657185    5.3266412372244494    0.0000079160856592
     0.0000100310856519    0.0000057914500013    7.7359046209631881
   3   6  11
Direct
 -0.0000000000000000  0.0000000000000000  0.5000000000000000
  0.3333221429551703  0.6666442859103406  0.4306273634928208
  0.6666778570448296  0.3333557140896594  0.5693726365071793
  0.8455114796348894  0.6910229592697786  0.1481545077857510
  0.3089862587406200  0.1544918326098788  0.1481545883080751
  0.8455055738692588  0.1544918326098788  0.1481545883080751
  0.1544885203651107  0.3089770407302213  0.8518454922142491
  0.1544944261307412  0.8455081673901212  0.8518454116919250
  0.6910137412593801  0.8455081673901212  0.8518454116919250
  0.5000000000000000  0.0000000000000000 -0.0000000000000000
  0.0000000000000000  0.5000000000000000  0.0000000000000000
  0.5000000000000000  0.5000000000000000 -0.0000000000000000
  0.1559979984632940  0.3119959969265879  0.3149640794660953
  0.6879899528687440  0.8439983677332691  0.3149638571035843
  0.1560084148645250  0.8439983677332691  0.3149638571035843
  0.8440020015367060  0.6880040030734120  0.6850359205339047
  0.8439915851354750  0.1560016322667309  0.6850361428964156
  0.3120100471312560  0.1560016322667309  0.6850361428964156
  0.6666789325949540  0.3333578651899011  0.3013623601940427
  0.3333210674050459  0.6666421348100988  0.6986376398059573
 
  0.00000000E+00  0.00000000E+00  0.00000000E+00
  0.00000000E+00  0.00000000E+00  0.00000000E+00
  0.00000000E+00  0.00000000E+00  0.00000000E+00
  0.00000000E+00  0.00000000E+00  0.00000000E+00
  0.00000000E+00  0.00000000E+00  0.00000000E+00
  0.00000000E+00  0.00000000E+00  0.00000000E+00
  0.00000000E+00  0.00000000E+00  0.00000000E+00
  0.00000000E+00  0.00000000E+00  0.00000000E+00
  0.00000000E+00  0.00000000E+00  0.00000000E+00
  0.00000000E+00  0.00000000E+00  0.00000000E+00
  0.00000000E+00  0.00000000E+00  0.00000000E+00
  0.00000000E+00  0.00000000E+00  0.00000000E+00
  0.00000000E+00  0.00000000E+00  0.00000000E+00
  0.00000000E+00  0.00000000E+00  0.00000000E+00
  0.00000000E+00  0.00000000E+00  0.00000000E+00
  0.00000000E+00  0.00000000E+00  0.00000000E+00
  0.00000000E+00  0.00000000E+00  0.00000000E+00
  0.00000000E+00  0.00000000E+00  0.00000000E+00
  0.00000000E+00  0.00000000E+00  0.00000000E+00
  0.00000000E+00  0.00000000E+00  0.00000000E+00
