Ba1N2Zr1   [TET,TET,tP8] (STD_PRIM doi:1
   1.00000000000000     
     4.2053841856104599   -0.0000000000000000   -0.0000000000000000
    -0.0000000000000000    4.2053841856104599    0.0000000000000000
     0.0000000000000000   -0.0000000000000000    8.4700082298014845
   2   4   2
Direct
  0.2500000000000000  0.2500000000000000  0.8477453682128852
  0.7500000000000000  0.7500000000000000  0.1522546317871148
  0.7500000000000000  0.2500000000000000  0.5000000000000000
  0.2500000000000000  0.7500000000000000  0.5000000000000000
  0.2500000000000000  0.2500000000000000  0.1746997939738836
  0.7500000000000000  0.7500000000000000  0.8253002060261164
  0.2500000000000000  0.2500000000000000  0.4127896198515830
  0.7500000000000000  0.7500000000000000  0.5872103801484170
 
  0.00000000E+00  0.00000000E+00  0.00000000E+00
  0.00000000E+00  0.00000000E+00  0.00000000E+00
  0.00000000E+00  0.00000000E+00  0.00000000E+00
  0.00000000E+00  0.00000000E+00  0.00000000E+00
  0.00000000E+00  0.00000000E+00  0.00000000E+00
  0.00000000E+00  0.00000000E+00  0.00000000E+00
  0.00000000E+00  0.00000000E+00  0.00000000E+00
  0.00000000E+00  0.00000000E+00  0.00000000E+00
