Ge6Lu4Ru7   [BCC,BCC,cI34] (STD_PRIM doi
   1.00000000000000     
    -4.1337847621231694    4.1337847621231694    4.1337847621231694
     4.1337847621231694   -4.1337847621231694    4.1337847621231694
     4.1337847621231694    4.1337847621231694   -4.1337847621231694
   6   4   7
Direct
  0.0000000000000000  0.3143379693633909  0.3143379693633909
  0.0000000000000000  0.6856620306366090  0.6856620306366090
  0.3143379693633909  0.3143379693633909  0.0000000000000000
  0.6856620306366090  0.6856620306366090  0.0000000000000000
  0.6856620306366090  0.0000000000000000  0.6856620306366090
  0.3143379693633909  0.0000000000000000  0.3143379693633909
  0.0000000000000000  0.5000000000000000 -0.0000000000000000
  0.5000000000000000  0.5000000000000000  0.5000000000000000
  0.5000000000000000 -0.0000000000000000  0.0000000000000000
  0.0000000000000000  0.0000000000000000  0.5000000000000000
 -0.0000000000000000  0.0000000000000000  0.0000000000000000
  0.5000000000000000  0.2500000000000000  0.7500000000000000
  0.5000000000000000  0.7500000000000000  0.2500000000000000
  0.2500000000000000  0.7500000000000000  0.5000000000000000
  0.7500000000000000  0.2500000000000000  0.5000000000000000
  0.2500000000000000  0.5000000000000000  0.7500000000000000
  0.7500000000000000  0.5000000000000000  0.2500000000000000
 
  0.00000000E+00  0.00000000E+00  0.00000000E+00
  0.00000000E+00  0.00000000E+00  0.00000000E+00
  0.00000000E+00  0.00000000E+00  0.00000000E+00
  0.00000000E+00  0.00000000E+00  0.00000000E+00
  0.00000000E+00  0.00000000E+00  0.00000000E+00
  0.00000000E+00  0.00000000E+00  0.00000000E+00
  0.00000000E+00  0.00000000E+00  0.00000000E+00
  0.00000000E+00  0.00000000E+00  0.00000000E+00
  0.00000000E+00  0.00000000E+00  0.00000000E+00
  0.00000000E+00  0.00000000E+00  0.00000000E+00
  0.00000000E+00  0.00000000E+00  0.00000000E+00
  0.00000000E+00  0.00000000E+00  0.00000000E+00
  0.00000000E+00  0.00000000E+00  0.00000000E+00
  0.00000000E+00  0.00000000E+00  0.00000000E+00
  0.00000000E+00  0.00000000E+00  0.00000000E+00
  0.00000000E+00  0.00000000E+00  0.00000000E+00
  0.00000000E+00  0.00000000E+00  0.00000000E+00
