Ca1O3Ru1   [ORC,ORC,oP20] (STD_PRIM doi:
   1.00000000000000     
     5.3949222266786911    0.0000000000000000    0.0000000000000000
    -0.0000000000000000    5.6677746889563805    0.0000000000000000
     0.0000000000000000    0.0000000000000000    7.7300347119443140
   4  12   4
Direct
  0.9804124354326591  0.4402085005159715  0.7500000000000000
  0.4804124354326590  0.0597914994840285  0.2500000000000000
  0.0195875645673410  0.5597914994840285  0.2500000000000000
  0.5195875645673409  0.9402085005159715  0.7500000000000000
  0.8962128230777200  0.9650911349938918  0.2500000000000000
  0.3962128230777200  0.5349088650061082  0.7500000000000000
  0.1037871769222801  0.0349088650061082  0.7500000000000000
  0.6037871769222800  0.4650911349938918  0.2500000000000000
  0.6935615424402568  0.2013445482407170  0.9500295698738379
  0.1935615424402567  0.2986554517592830  0.0499704301261622
  0.3064384575597432  0.7986554517592830  0.4500295698738379
  0.8064384575597432  0.7013445482407170  0.5499704301261621
  0.3064384575597432  0.7986554517592830  0.0499704301261622
  0.8064384575597432  0.7013445482407170  0.9500295698738379
  0.6935615424402568  0.2013445482407170  0.5499704301261621
  0.1935615424402567  0.2986554517592830  0.4500295698738379
  0.0000000000000000  0.0000000000000000  0.0000000000000000
  0.5000000000000000  0.5000000000000000  0.0000000000000000
  0.0000000000000000  0.0000000000000000  0.5000000000000000
  0.5000000000000000  0.5000000000000000  0.5000000000000000
 
  0.00000000E+00  0.00000000E+00  0.00000000E+00
  0.00000000E+00  0.00000000E+00  0.00000000E+00
  0.00000000E+00  0.00000000E+00  0.00000000E+00
  0.00000000E+00  0.00000000E+00  0.00000000E+00
  0.00000000E+00  0.00000000E+00  0.00000000E+00
  0.00000000E+00  0.00000000E+00  0.00000000E+00
  0.00000000E+00  0.00000000E+00  0.00000000E+00
  0.00000000E+00  0.00000000E+00  0.00000000E+00
  0.00000000E+00  0.00000000E+00  0.00000000E+00
  0.00000000E+00  0.00000000E+00  0.00000000E+00
  0.00000000E+00  0.00000000E+00  0.00000000E+00
  0.00000000E+00  0.00000000E+00  0.00000000E+00
  0.00000000E+00  0.00000000E+00  0.00000000E+00
  0.00000000E+00  0.00000000E+00  0.00000000E+00
  0.00000000E+00  0.00000000E+00  0.00000000E+00
  0.00000000E+00  0.00000000E+00  0.00000000E+00
  0.00000000E+00  0.00000000E+00  0.00000000E+00
  0.00000000E+00  0.00000000E+00  0.00000000E+00
  0.00000000E+00  0.00000000E+00  0.00000000E+00
  0.00000000E+00  0.00000000E+00  0.00000000E+00
