Rh1Sb1Se1   [CUB,CUB,cP12] (STD_PRIM doi
   1.00000000000000     
     6.2541033264446986    0.0000000000000000    0.0000000000000000
     0.0000000000000000    6.2541033264446986    0.0000000000000000
     0.0000000000000000    0.0000000000000000    6.2541033264446986
   4   4   4
Direct
  0.9951189131001996  0.9951189131001996  0.9951189131001996
  0.5048810868998004  0.0048810868998004  0.4951189131001996
  0.0048810868998004  0.4951189131001996  0.5048810868998004
  0.4951189131001996  0.5048810868998004  0.0048810868998004
  0.6236677074337180  0.6236677074337180  0.6236677074337180
  0.8763322925662820  0.3763322925662820  0.1236677074337180
  0.3763322925662820  0.1236677074337180  0.8763322925662820
  0.1236677074337180  0.8763322925662820  0.3763322925662820
  0.3788178333120698  0.3788178333120698  0.3788178333120698
  0.1211821666879302  0.6211821666879302  0.8788178333120698
  0.6211821666879302  0.8788178333120698  0.1211821666879302
  0.8788178333120698  0.1211821666879302  0.6211821666879302
 
  0.00000000E+00  0.00000000E+00  0.00000000E+00
  0.00000000E+00  0.00000000E+00  0.00000000E+00
  0.00000000E+00  0.00000000E+00  0.00000000E+00
  0.00000000E+00  0.00000000E+00  0.00000000E+00
  0.00000000E+00  0.00000000E+00  0.00000000E+00
  0.00000000E+00  0.00000000E+00  0.00000000E+00
  0.00000000E+00  0.00000000E+00  0.00000000E+00
  0.00000000E+00  0.00000000E+00  0.00000000E+00
  0.00000000E+00  0.00000000E+00  0.00000000E+00
  0.00000000E+00  0.00000000E+00  0.00000000E+00
  0.00000000E+00  0.00000000E+00  0.00000000E+00
  0.00000000E+00  0.00000000E+00  0.00000000E+00
