Ir1Sb1Te1   [CUB,CUB,cP12] (STD_PRIM doi
   1.00000000000000     
     6.4616853787928781    0.0000000000000000    0.0000000000000000
     0.0000000000000000    6.4616853787928781    0.0000000000000000
     0.0000000000000000    0.0000000000000000    6.4616853787928781
   4   4   4
Direct
  0.0019527893427878  0.0019527893427878  0.0019527893427878
  0.4980472106572122  0.9980472106572122  0.5019527893427878
  0.9980472106572122  0.5019527893427878  0.4980472106572122
  0.5019527893427878  0.4980472106572122  0.9980472106572122
  0.6274285046635129  0.6274285046635129  0.6274285046635129
  0.8725714953364871  0.3725714953364871  0.1274285046635129
  0.3725714953364871  0.1274285046635129  0.8725714953364871
  0.1274285046635129  0.8725714953364871  0.3725714953364871
  0.3740967344337278  0.3740967344337278  0.3740967344337278
  0.1259032655662722  0.6259032655662722  0.8740967344337278
  0.6259032655662722  0.8740967344337278  0.1259032655662722
  0.8740967344337278  0.1259032655662722  0.6259032655662722
 
  0.00000000E+00  0.00000000E+00  0.00000000E+00
  0.00000000E+00  0.00000000E+00  0.00000000E+00
  0.00000000E+00  0.00000000E+00  0.00000000E+00
  0.00000000E+00  0.00000000E+00  0.00000000E+00
  0.00000000E+00  0.00000000E+00  0.00000000E+00
  0.00000000E+00  0.00000000E+00  0.00000000E+00
  0.00000000E+00  0.00000000E+00  0.00000000E+00
  0.00000000E+00  0.00000000E+00  0.00000000E+00
  0.00000000E+00  0.00000000E+00  0.00000000E+00
  0.00000000E+00  0.00000000E+00  0.00000000E+00
  0.00000000E+00  0.00000000E+00  0.00000000E+00
  0.00000000E+00  0.00000000E+00  0.00000000E+00
