O4Si1Zr1   [BCT,BCT2,tI24] (STD_PRIM doi
   1.00000000000000     
    -2.3926620901127200    2.3926621013232889    5.3324308243357592
     2.3926620901127200   -2.3926621013232889    5.3324308243357592
     2.3926621013232885    2.3926620901127200   -5.3324308243357592
   8   2   2
Direct
  0.7894985996144498  0.6398211640632079  0.8337753524774173
  0.3060458115857905  0.9557232471370325  0.6662246475225827
  0.9557232471370325  0.7894985996144498  0.6496774355512420
  0.6398211640632079  0.3060458115857905  0.8503225644487580
  0.2105014003855502  0.3601788359367921  0.1662246475225826
  0.6939541884142094  0.0442767528629675  0.3337753524774173
  0.0442767528629675  0.2105014003855502  0.3503225644487580
  0.3601788359367921  0.6939541884142094  0.1496774355512420
  0.1250000000000000  0.8750000000000000  0.2500000000000000
  0.8750000000000000  0.1250000000000000  0.7500000000000000
  0.6250000000000000  0.3750000000000000  0.2500000000000000
  0.3750000000000000  0.6250000000000000  0.7500000000000000
 
  0.00000000E+00  0.00000000E+00  0.00000000E+00
  0.00000000E+00  0.00000000E+00  0.00000000E+00
  0.00000000E+00  0.00000000E+00  0.00000000E+00
  0.00000000E+00  0.00000000E+00  0.00000000E+00
  0.00000000E+00  0.00000000E+00  0.00000000E+00
  0.00000000E+00  0.00000000E+00  0.00000000E+00
  0.00000000E+00  0.00000000E+00  0.00000000E+00
  0.00000000E+00  0.00000000E+00  0.00000000E+00
  0.00000000E+00  0.00000000E+00  0.00000000E+00
  0.00000000E+00  0.00000000E+00  0.00000000E+00
  0.00000000E+00  0.00000000E+00  0.00000000E+00
  0.00000000E+00  0.00000000E+00  0.00000000E+00
