Cu1K1Te1   [HEX,HEX,hP6] (STD_PRIM doi:1
   1.00000000000000     
     2.2507524977899651   -3.8984176814347800    0.0000000000000000
     2.2506773728907152    3.8983743080539757    0.0000000000000000
     0.0000000000000000    0.0000000000000000   10.0947253823474838
   2   2   2
Direct
  0.6666998816647762  0.3333997633295525  0.7500000000000000
  0.3333001183352238  0.6666002366704475  0.2500000000000000
  0.0000000000000000  0.0000000000000000  0.0000000000000000
  0.0000000000000000  0.0000000000000000  0.5000000000000000
  0.6666737384401600  0.3333474768803129  0.2500000000000000
  0.3333262615598400  0.6666525231196871  0.7500000000000000
 
  0.00000000E+00  0.00000000E+00  0.00000000E+00
  0.00000000E+00  0.00000000E+00  0.00000000E+00
  0.00000000E+00  0.00000000E+00  0.00000000E+00
  0.00000000E+00  0.00000000E+00  0.00000000E+00
  0.00000000E+00  0.00000000E+00  0.00000000E+00
  0.00000000E+00  0.00000000E+00  0.00000000E+00
