Cl2H6N2   [CUB,CUB,cP40] (STD_PRIM doi:1
   1.00000000000000     
     7.9203512983716911    0.0000000000000000   -0.0000000000000000
     0.0000000000000000    7.9203512983716911   -0.0000000000000000
    -0.0000000000000000   -0.0000000000000000    7.9203512983716911
   8  24   8
Direct
  0.7826846638473355  0.2826846638473355  0.2173153361526645
  0.7173153361526645  0.7173153361526645  0.7173153361526645
  0.2173153361526645  0.7826846638473355  0.2826846638473355
  0.2826846638473355  0.2173153361526645  0.7826846638473355
  0.2173153361526645  0.7173153361526645  0.7826846638473355
  0.2826846638473355  0.2826846638473355  0.2826846638473355
  0.7826846638473355  0.2173153361526645  0.7173153361526645
  0.7173153361526645  0.7826846638473355  0.2173153361526645
  0.6400099350921770  0.3823689791669370  0.0260707388357452
  0.8599900649078230  0.6176310208330630  0.5260707388357452
  0.3599900649078231  0.8823689791669370  0.4739292611642548
  0.1400099350921769  0.1176310208330630  0.9739292611642548
  0.0260707388357452  0.6400099350921770  0.3823689791669370
  0.5260707388357452  0.8599900649078230  0.6176310208330630
  0.4739292611642548  0.3599900649078231  0.8823689791669370
  0.9739292611642548  0.1400099350921769  0.1176310208330630
  0.3823689791669370  0.0260707388357452  0.6400099350921770
  0.6176310208330630  0.5260707388357452  0.8599900649078230
  0.8823689791669370  0.4739292611642548  0.3599900649078231
  0.1176310208330630  0.9739292611642548  0.1400099350921769
  0.3599900649078231  0.6176310208330630  0.9739292611642548
  0.1400099350921769  0.3823689791669370  0.4739292611642548
  0.6400099350921770  0.1176310208330630  0.5260707388357452
  0.8599900649078230  0.8823689791669370  0.0260707388357452
  0.9739292611642548  0.3599900649078231  0.6176310208330630
  0.4739292611642548  0.1400099350921769  0.3823689791669370
  0.5260707388357452  0.6400099350921770  0.1176310208330630
  0.0260707388357452  0.8599900649078230  0.8823689791669370
  0.6176310208330630  0.9739292611642548  0.3599900649078231
  0.3823689791669370  0.4739292611642548  0.1400099350921769
  0.1176310208330630  0.5260707388357452  0.6400099350921770
  0.8823689791669370  0.0260707388357452  0.8599900649078230
  0.5526656092420301  0.4473343907579699  0.9473343907579699
  0.9473343907579699  0.5526656092420301  0.4473343907579699
  0.4473343907579699  0.9473343907579699  0.5526656092420301
  0.0526656092420301  0.0526656092420301  0.0526656092420301
  0.4473343907579699  0.5526656092420301  0.0526656092420301
  0.0526656092420301  0.4473343907579699  0.5526656092420301
  0.5526656092420301  0.0526656092420301  0.4473343907579699
  0.9473343907579699  0.9473343907579699  0.9473343907579699
 
  0.00000000E+00  0.00000000E+00  0.00000000E+00
  0.00000000E+00  0.00000000E+00  0.00000000E+00
  0.00000000E+00  0.00000000E+00  0.00000000E+00
  0.00000000E+00  0.00000000E+00  0.00000000E+00
  0.00000000E+00  0.00000000E+00  0.00000000E+00
  0.00000000E+00  0.00000000E+00  0.00000000E+00
  0.00000000E+00  0.00000000E+00  0.00000000E+00
  0.00000000E+00  0.00000000E+00  0.00000000E+00
  0.00000000E+00  0.00000000E+00  0.00000000E+00
  0.00000000E+00  0.00000000E+00  0.00000000E+00
  0.00000000E+00  0.00000000E+00  0.00000000E+00
  0.00000000E+00  0.00000000E+00  0.00000000E+00
  0.00000000E+00  0.00000000E+00  0.00000000E+00
  0.00000000E+00  0.00000000E+00  0.00000000E+00
  0.00000000E+00  0.00000000E+00  0.00000000E+00
  0.00000000E+00  0.00000000E+00  0.00000000E+00
  0.00000000E+00  0.00000000E+00  0.00000000E+00
  0.00000000E+00  0.00000000E+00  0.00000000E+00
  0.00000000E+00  0.00000000E+00  0.00000000E+00
  0.00000000E+00  0.00000000E+00  0.00000000E+00
  0.00000000E+00  0.00000000E+00  0.00000000E+00
  0.00000000E+00  0.00000000E+00  0.00000000E+00
  0.00000000E+00  0.00000000E+00  0.00000000E+00
  0.00000000E+00  0.00000000E+00  0.00000000E+00
  0.00000000E+00  0.00000000E+00  0.00000000E+00
  0.00000000E+00  0.00000000E+00  0.00000000E+00
  0.00000000E+00  0.00000000E+00  0.00000000E+00
  0.00000000E+00  0.00000000E+00  0.00000000E+00
  0.00000000E+00  0.00000000E+00  0.00000000E+00
  0.00000000E+00  0.00000000E+00  0.00000000E+00
  0.00000000E+00  0.00000000E+00  0.00000000E+00
  0.00000000E+00  0.00000000E+00  0.00000000E+00
  0.00000000E+00  0.00000000E+00  0.00000000E+00
  0.00000000E+00  0.00000000E+00  0.00000000E+00
  0.00000000E+00  0.00000000E+00  0.00000000E+00
  0.00000000E+00  0.00000000E+00  0.00000000E+00
  0.00000000E+00  0.00000000E+00  0.00000000E+00
  0.00000000E+00  0.00000000E+00  0.00000000E+00
  0.00000000E+00  0.00000000E+00  0.00000000E+00
  0.00000000E+00  0.00000000E+00  0.00000000E+00
