O7P2Zr1   [CUB,CUB,cP40] (STD_PRIM doi:1
   1.00000000000000     
     8.5519674913885062    0.0000000000000000    0.0000000000000000
     0.0000000000000000    8.5519674913885062   -0.0000000000000000
    -0.0000000000000000   -0.0000000000000000    8.5519674913885062
  28   8   4
Direct
  0.4423237107713249  0.2248328816235594  0.4233804046938032
  0.0576762892286751  0.7751671183764405  0.9233804046938031
  0.5576762892286752  0.7248328816235595  0.0766195953061968
  0.9423237107713248  0.2751671183764406  0.5766195953061969
  0.4233804046938032  0.4423237107713249  0.2248328816235594
  0.9233804046938031  0.0576762892286751  0.7751671183764405
  0.0766195953061968  0.5576762892286752  0.7248328816235595
  0.5766195953061969  0.9423237107713248  0.2751671183764406
  0.2248328816235594  0.4233804046938032  0.4423237107713249
  0.7751671183764405  0.9233804046938031  0.0576762892286751
  0.7248328816235595  0.0766195953061968  0.5576762892286752
  0.2751671183764406  0.5766195953061969  0.9423237107713248
  0.5576762892286752  0.7751671183764405  0.5766195953061969
  0.9423237107713248  0.2248328816235594  0.0766195953061968
  0.4423237107713249  0.2751671183764406  0.9233804046938031
  0.0576762892286751  0.7248328816235595  0.4233804046938032
  0.5766195953061969  0.5576762892286752  0.7751671183764405
  0.0766195953061968  0.9423237107713248  0.2248328816235594
  0.9233804046938031  0.4423237107713249  0.2751671183764406
  0.4233804046938032  0.0576762892286751  0.7248328816235595
  0.7751671183764405  0.5766195953061969  0.5576762892286752
  0.2248328816235594  0.0766195953061968  0.9423237107713248
  0.2751671183764406  0.9233804046938031  0.4423237107713249
  0.7248328816235595  0.4233804046938032  0.0576762892286751
  0.5000000000000000  0.5000000000000000  0.5000000000000000
  0.0000000000000000  0.5000000000000000  0.0000000000000000
  0.5000000000000000  0.0000000000000000  0.0000000000000000
  0.0000000000000000  0.0000000000000000  0.5000000000000000
  0.3930977784118453  0.3930977784118453  0.3930977784118453
  0.1069022215881547  0.6069022215881547  0.8930977784118453
  0.6069022215881547  0.8930977784118453  0.1069022215881547
  0.8930977784118453  0.1069022215881547  0.6069022215881547
  0.6069022215881547  0.6069022215881547  0.6069022215881547
  0.8930977784118453  0.3930977784118453  0.1069022215881547
  0.3930977784118453  0.1069022215881547  0.8930977784118453
  0.1069022215881547  0.8930977784118453  0.3930977784118453
  0.0000000000000000  0.0000000000000000  0.0000000000000000
  0.5000000000000000  0.0000000000000000  0.5000000000000000
  0.0000000000000000  0.5000000000000000  0.5000000000000000
  0.5000000000000000  0.5000000000000000  0.0000000000000000
 
  0.00000000E+00  0.00000000E+00  0.00000000E+00
  0.00000000E+00  0.00000000E+00  0.00000000E+00
  0.00000000E+00  0.00000000E+00  0.00000000E+00
  0.00000000E+00  0.00000000E+00  0.00000000E+00
  0.00000000E+00  0.00000000E+00  0.00000000E+00
  0.00000000E+00  0.00000000E+00  0.00000000E+00
  0.00000000E+00  0.00000000E+00  0.00000000E+00
  0.00000000E+00  0.00000000E+00  0.00000000E+00
  0.00000000E+00  0.00000000E+00  0.00000000E+00
  0.00000000E+00  0.00000000E+00  0.00000000E+00
  0.00000000E+00  0.00000000E+00  0.00000000E+00
  0.00000000E+00  0.00000000E+00  0.00000000E+00
  0.00000000E+00  0.00000000E+00  0.00000000E+00
  0.00000000E+00  0.00000000E+00  0.00000000E+00
  0.00000000E+00  0.00000000E+00  0.00000000E+00
  0.00000000E+00  0.00000000E+00  0.00000000E+00
  0.00000000E+00  0.00000000E+00  0.00000000E+00
  0.00000000E+00  0.00000000E+00  0.00000000E+00
  0.00000000E+00  0.00000000E+00  0.00000000E+00
  0.00000000E+00  0.00000000E+00  0.00000000E+00
  0.00000000E+00  0.00000000E+00  0.00000000E+00
  0.00000000E+00  0.00000000E+00  0.00000000E+00
  0.00000000E+00  0.00000000E+00  0.00000000E+00
  0.00000000E+00  0.00000000E+00  0.00000000E+00
  0.00000000E+00  0.00000000E+00  0.00000000E+00
  0.00000000E+00  0.00000000E+00  0.00000000E+00
  0.00000000E+00  0.00000000E+00  0.00000000E+00
  0.00000000E+00  0.00000000E+00  0.00000000E+00
  0.00000000E+00  0.00000000E+00  0.00000000E+00
  0.00000000E+00  0.00000000E+00  0.00000000E+00
  0.00000000E+00  0.00000000E+00  0.00000000E+00
  0.00000000E+00  0.00000000E+00  0.00000000E+00
  0.00000000E+00  0.00000000E+00  0.00000000E+00
  0.00000000E+00  0.00000000E+00  0.00000000E+00
  0.00000000E+00  0.00000000E+00  0.00000000E+00
  0.00000000E+00  0.00000000E+00  0.00000000E+00
  0.00000000E+00  0.00000000E+00  0.00000000E+00
  0.00000000E+00  0.00000000E+00  0.00000000E+00
  0.00000000E+00  0.00000000E+00  0.00000000E+00
  0.00000000E+00  0.00000000E+00  0.00000000E+00
