Ni2Si2Th1   [BCT,BCT2,tI10] (STD_PRIM do
   1.00000000000000     
    -2.0578795649193502    2.0578795649193502    4.8142196559293300
     2.0578795649193502   -2.0578795649193502    4.8142196559293300
     2.0578795649193502    2.0578795649193502   -4.8142196559293300
   2   2   1
Direct
  0.2500000000000000  0.7500000000000000  0.5000000000000000
  0.7500000000000000  0.2500000000000000  0.5000000000000000
  0.3661945661149986  0.3661945661149986  0.0000000000000000
  0.6338054338850014  0.6338054338850014  0.0000000000000000
  0.0000000000000000  0.0000000000000000  0.0000000000000000
 
  0.00000000E+00  0.00000000E+00  0.00000000E+00
  0.00000000E+00  0.00000000E+00  0.00000000E+00
  0.00000000E+00  0.00000000E+00  0.00000000E+00
  0.00000000E+00  0.00000000E+00  0.00000000E+00
  0.00000000E+00  0.00000000E+00  0.00000000E+00
