Ce1Os2   [HEX,HEX,hP12] (STD_PRIM doi:10
   1.00000000000000     
     2.6644274634264109   -4.6149064953409962   -0.0000000000000000
     2.6644274634264109    4.6149064953409962    0.0000000000000000
     0.0000000000000000    0.0000000000000000    9.0371851378559551
   4   8
Direct
  0.3333282548541356  0.6666717451458642  0.0694874026502224
  0.6666717451458642  0.3333282548541356  0.5694874026502225
  0.6666717451458642  0.3333282548541356  0.9305125973497775
  0.3333282548541356  0.6666717451458642  0.4305125973497776
  0.0000000000000000  0.0000000000000000  0.0000000000000000
  0.0000000000000000  0.0000000000000000  0.5000000000000000
  0.8297120545359846  0.6594516090245454  0.2500000000000000
  0.3405483909754546  0.1702879454640154  0.2500000000000000
  0.8297253233557416  0.1702746766442584  0.2500000000000000
  0.1702879454640154  0.3405483909754546  0.7500000000000000
  0.6594516090245454  0.8297120545359846  0.7500000000000000
  0.1702746766442584  0.8297253233557416  0.7500000000000000
 
  0.00000000E+00  0.00000000E+00  0.00000000E+00
  0.00000000E+00  0.00000000E+00  0.00000000E+00
  0.00000000E+00  0.00000000E+00  0.00000000E+00
  0.00000000E+00  0.00000000E+00  0.00000000E+00
  0.00000000E+00  0.00000000E+00  0.00000000E+00
  0.00000000E+00  0.00000000E+00  0.00000000E+00
  0.00000000E+00  0.00000000E+00  0.00000000E+00
  0.00000000E+00  0.00000000E+00  0.00000000E+00
  0.00000000E+00  0.00000000E+00  0.00000000E+00
  0.00000000E+00  0.00000000E+00  0.00000000E+00
  0.00000000E+00  0.00000000E+00  0.00000000E+00
  0.00000000E+00  0.00000000E+00  0.00000000E+00
