C7V8   [CUB,CUB,cP60] (STD_PRIM doi:10.1
   1.00000000000000     
     8.3882000376980201   -0.0000000000000000    0.0000000000000000
     0.0000000000000000    8.3882000376980201   -0.0000000000000000
     0.0000000000000000    0.0000000000000000    8.3882000376980201
  28  32
Direct
  0.1250000000000000  0.1250000000000000  0.1250000000000000
  0.3750000000000000  0.8750000000000000  0.6250000000000000
  0.8750000000000000  0.6250000000000000  0.3750000000000000
  0.6250000000000000  0.3750000000000000  0.8750000000000000
  0.1250000000000000  0.6288964617224519  0.6211035382775481
  0.3750000000000000  0.3711035382775481  0.1211035382775480
  0.8750000000000000  0.1288964617224520  0.8788964617224519
  0.6250000000000000  0.8711035382775481  0.3788964617224519
  0.6211035382775481  0.1250000000000000  0.6288964617224519
  0.1211035382775480  0.3750000000000000  0.3711035382775481
  0.8788964617224519  0.8750000000000000  0.1288964617224520
  0.3788964617224519  0.6250000000000000  0.8711035382775481
  0.6288964617224519  0.6211035382775481  0.1250000000000000
  0.3711035382775481  0.1211035382775480  0.3750000000000000
  0.1288964617224520  0.8788964617224519  0.8750000000000000
  0.8711035382775481  0.3788964617224519  0.6250000000000000
  0.1250000000000000  0.3739345467249788  0.8760654532750212
  0.3750000000000000  0.6260654532750212  0.3760654532750212
  0.8750000000000000  0.8739345467249788  0.6239345467249788
  0.6250000000000000  0.1260654532750212  0.1239345467249788
  0.8760654532750212  0.1250000000000000  0.3739345467249788
  0.3760654532750212  0.3750000000000000  0.6260654532750212
  0.6239345467249788  0.8750000000000000  0.8739345467249788
  0.1239345467249788  0.6250000000000000  0.1260654532750212
  0.3739345467249788  0.8760654532750212  0.1250000000000000
  0.6260654532750212  0.3760654532750212  0.3750000000000000
  0.8739345467249788  0.6239345467249788  0.8750000000000000
  0.1260654532750212  0.1239345467249788  0.6250000000000000
  0.3781273273196709  0.3781273273196709  0.3781273273196709
  0.1218726726803291  0.6218726726803291  0.8781273273196709
  0.6218726726803291  0.8781273273196709  0.1218726726803291
  0.8781273273196709  0.1218726726803291  0.6218726726803291
  0.6281273273196709  0.1281273273196708  0.3718726726803291
  0.8718726726803291  0.8718726726803291  0.8718726726803291
  0.1281273273196708  0.3718726726803291  0.6281273273196709
  0.3718726726803291  0.6281273273196709  0.1281273273196708
  0.1425292073695902  0.3724046413247086  0.1193258894707411
  0.3574707926304098  0.6275953586752914  0.6193258894707411
  0.8574707926304098  0.8724046413247086  0.3806741105292589
  0.6425292073695902  0.1275953586752913  0.8806741105292589
  0.1193258894707411  0.1425292073695902  0.3724046413247086
  0.6193258894707411  0.3574707926304098  0.6275953586752914
  0.3806741105292589  0.8574707926304098  0.8724046413247086
  0.8806741105292589  0.6425292073695902  0.1275953586752913
  0.3724046413247086  0.1193258894707411  0.1425292073695902
  0.6275953586752914  0.6193258894707411  0.3574707926304098
  0.8724046413247086  0.3806741105292589  0.8574707926304098
  0.1275953586752913  0.8806741105292589  0.6425292073695902
  0.6224046413247086  0.8925292073695902  0.6306741105292589
  0.8775953586752914  0.1074707926304098  0.1306741105292589
  0.1224046413247087  0.6074707926304098  0.3693258894707411
  0.3775953586752914  0.3925292073695902  0.8693258894707411
  0.3925292073695902  0.8693258894707411  0.3775953586752914
  0.6074707926304098  0.3693258894707411  0.1224046413247087
  0.1074707926304098  0.1306741105292589  0.8775953586752914
  0.8925292073695902  0.6306741105292589  0.6224046413247086
  0.3693258894707411  0.1224046413247087  0.6074707926304098
  0.8693258894707411  0.3775953586752914  0.3925292073695902
  0.6306741105292589  0.6224046413247086  0.8925292073695902
  0.1306741105292589  0.8775953586752914  0.1074707926304098
 
  0.00000000E+00  0.00000000E+00  0.00000000E+00
  0.00000000E+00  0.00000000E+00  0.00000000E+00
  0.00000000E+00  0.00000000E+00  0.00000000E+00
  0.00000000E+00  0.00000000E+00  0.00000000E+00
  0.00000000E+00  0.00000000E+00  0.00000000E+00
  0.00000000E+00  0.00000000E+00  0.00000000E+00
  0.00000000E+00  0.00000000E+00  0.00000000E+00
  0.00000000E+00  0.00000000E+00  0.00000000E+00
  0.00000000E+00  0.00000000E+00  0.00000000E+00
  0.00000000E+00  0.00000000E+00  0.00000000E+00
  0.00000000E+00  0.00000000E+00  0.00000000E+00
  0.00000000E+00  0.00000000E+00  0.00000000E+00
  0.00000000E+00  0.00000000E+00  0.00000000E+00
  0.00000000E+00  0.00000000E+00  0.00000000E+00
  0.00000000E+00  0.00000000E+00  0.00000000E+00
  0.00000000E+00  0.00000000E+00  0.00000000E+00
  0.00000000E+00  0.00000000E+00  0.00000000E+00
  0.00000000E+00  0.00000000E+00  0.00000000E+00
  0.00000000E+00  0.00000000E+00  0.00000000E+00
  0.00000000E+00  0.00000000E+00  0.00000000E+00
  0.00000000E+00  0.00000000E+00  0.00000000E+00
  0.00000000E+00  0.00000000E+00  0.00000000E+00
  0.00000000E+00  0.00000000E+00  0.00000000E+00
  0.00000000E+00  0.00000000E+00  0.00000000E+00
  0.00000000E+00  0.00000000E+00  0.00000000E+00
  0.00000000E+00  0.00000000E+00  0.00000000E+00
  0.00000000E+00  0.00000000E+00  0.00000000E+00
  0.00000000E+00  0.00000000E+00  0.00000000E+00
  0.00000000E+00  0.00000000E+00  0.00000000E+00
  0.00000000E+00  0.00000000E+00  0.00000000E+00
  0.00000000E+00  0.00000000E+00  0.00000000E+00
  0.00000000E+00  0.00000000E+00  0.00000000E+00
  0.00000000E+00  0.00000000E+00  0.00000000E+00
  0.00000000E+00  0.00000000E+00  0.00000000E+00
  0.00000000E+00  0.00000000E+00  0.00000000E+00
  0.00000000E+00  0.00000000E+00  0.00000000E+00
  0.00000000E+00  0.00000000E+00  0.00000000E+00
  0.00000000E+00  0.00000000E+00  0.00000000E+00
  0.00000000E+00  0.00000000E+00  0.00000000E+00
  0.00000000E+00  0.00000000E+00  0.00000000E+00
  0.00000000E+00  0.00000000E+00  0.00000000E+00
  0.00000000E+00  0.00000000E+00  0.00000000E+00
  0.00000000E+00  0.00000000E+00  0.00000000E+00
  0.00000000E+00  0.00000000E+00  0.00000000E+00
  0.00000000E+00  0.00000000E+00  0.00000000E+00
  0.00000000E+00  0.00000000E+00  0.00000000E+00
  0.00000000E+00  0.00000000E+00  0.00000000E+00
  0.00000000E+00  0.00000000E+00  0.00000000E+00
  0.00000000E+00  0.00000000E+00  0.00000000E+00
  0.00000000E+00  0.00000000E+00  0.00000000E+00
  0.00000000E+00  0.00000000E+00  0.00000000E+00
  0.00000000E+00  0.00000000E+00  0.00000000E+00
  0.00000000E+00  0.00000000E+00  0.00000000E+00
  0.00000000E+00  0.00000000E+00  0.00000000E+00
  0.00000000E+00  0.00000000E+00  0.00000000E+00
  0.00000000E+00  0.00000000E+00  0.00000000E+00
  0.00000000E+00  0.00000000E+00  0.00000000E+00
  0.00000000E+00  0.00000000E+00  0.00000000E+00
  0.00000000E+00  0.00000000E+00  0.00000000E+00
  0.00000000E+00  0.00000000E+00  0.00000000E+00
