Al1Ho2   [ORC,ORC,oP12] (STD_PRIM doi:10
   1.00000000000000     
     5.0778608837208168    0.0000000000000000    0.0000000000000000
     0.0000000000000000    6.5298301929586442    0.0000000000000000
     0.0000000000000000    0.0000000000000000    9.4138252243103029
   4   8
Direct
  0.2500000000000000  0.2917083436973266  0.8970264896973199
  0.7500000000000000  0.2082916563026734  0.3970264896973199
  0.7500000000000000  0.7082916563026734  0.1029735103026801
  0.2500000000000000  0.7917083436973266  0.6029735103026801
  0.2500000000000000  0.8118512450515531  0.9274871498177211
  0.7500000000000000  0.6881487549484469  0.4274871498177211
  0.7500000000000000  0.1881487549484468  0.0725128501822789
  0.2500000000000000  0.3118512450515531  0.5725128501822789
  0.2500000000000000  0.9728561239099865  0.2896124399092578
  0.7500000000000000  0.5271438760900135  0.7896124399092579
  0.7500000000000000  0.0271438760900135  0.7103875600907421
  0.2500000000000000  0.4728561239099865  0.2103875600907422
 
  0.00000000E+00  0.00000000E+00  0.00000000E+00
  0.00000000E+00  0.00000000E+00  0.00000000E+00
  0.00000000E+00  0.00000000E+00  0.00000000E+00
  0.00000000E+00  0.00000000E+00  0.00000000E+00
  0.00000000E+00  0.00000000E+00  0.00000000E+00
  0.00000000E+00  0.00000000E+00  0.00000000E+00
  0.00000000E+00  0.00000000E+00  0.00000000E+00
  0.00000000E+00  0.00000000E+00  0.00000000E+00
  0.00000000E+00  0.00000000E+00  0.00000000E+00
  0.00000000E+00  0.00000000E+00  0.00000000E+00
  0.00000000E+00  0.00000000E+00  0.00000000E+00
  0.00000000E+00  0.00000000E+00  0.00000000E+00
