Er1Pd2Si2   [BCT,BCT2,tI10] (STD_PRIM do
   1.00000000000000     
    -2.0654226009545544    2.0654226009545544    4.9485525288639076
     2.0654226009545544   -2.0654226009545544    4.9485525288639076
     2.0654226009545544    2.0654226009545544   -4.9485525288639076
   1   2   2
Direct
  0.0000000000000000  0.0000000000000000  0.0000000000000000
  0.7500000000000000  0.2500000000000000  0.5000000000000000
  0.2500000000000000  0.7500000000000000  0.5000000000000000
  0.6164078018623442  0.6164078018623442  0.0000000000000000
  0.3835921981376558  0.3835921981376558  0.0000000000000000
 
  0.00000000E+00  0.00000000E+00  0.00000000E+00
  0.00000000E+00  0.00000000E+00  0.00000000E+00
  0.00000000E+00  0.00000000E+00  0.00000000E+00
  0.00000000E+00  0.00000000E+00  0.00000000E+00
  0.00000000E+00  0.00000000E+00  0.00000000E+00
