Al2Pd5U1   [BCT,BCT2,tI16] (STD_PRIM doi
   1.00000000000000     
    -2.1030384375744320    2.1030384375744320    7.5175627533198970
     2.1030384375744320   -2.1030384375744320    7.5175627533198970
     2.1030384375744320    2.1030384375744320   -7.5175627533198970
   2   5   1
Direct
  0.2549379770306043  0.2549379770306043  0.0000000000000000
  0.7450620229693956  0.7450620229693956 -0.0000000000000000
  0.5000000000000000  0.5000000000000000  0.0000000000000000
  0.1484061896181612  0.6484061896181612  0.5000000000000000
  0.6484061896181612  0.1484061896181612  0.5000000000000000
  0.8515938103818388  0.3515938103818388  0.5000000000000000
  0.3515938103818388  0.8515938103818388  0.5000000000000000
  0.0000000000000000  0.0000000000000000  0.0000000000000000
 
  0.00000000E+00  0.00000000E+00  0.00000000E+00
  0.00000000E+00  0.00000000E+00  0.00000000E+00
  0.00000000E+00  0.00000000E+00  0.00000000E+00
  0.00000000E+00  0.00000000E+00  0.00000000E+00
  0.00000000E+00  0.00000000E+00  0.00000000E+00
  0.00000000E+00  0.00000000E+00  0.00000000E+00
  0.00000000E+00  0.00000000E+00  0.00000000E+00
  0.00000000E+00  0.00000000E+00  0.00000000E+00
