Lu1Te2 #129.2 - (Lu1Te2_ICSD_642622) - L
   1.00000000000000     
     4.4165042545956830    0.0000000000000000    0.0000000000000000
     0.0000000000000000    4.4165042545956830    0.0000000000000000
     0.0000000000000000    0.0000000000000000    8.7091854506845650
   2   4
Direct
  0.2500000000000000  0.2500000000000000  0.2705093187019766
  0.7500000000000000  0.7500000000000000  0.7294906812980233
  0.7500000000000000  0.2500000000000000  0.0000000000000000
  0.2500000000000000  0.7500000000000000  0.0000000000000000
  0.2500000000000000  0.2500000000000000  0.6273249863387490
  0.7500000000000000  0.7500000000000000  0.3726750136612512
 
  0.00000000E+00  0.00000000E+00  0.00000000E+00
  0.00000000E+00  0.00000000E+00  0.00000000E+00
  0.00000000E+00  0.00000000E+00  0.00000000E+00
  0.00000000E+00  0.00000000E+00  0.00000000E+00
  0.00000000E+00  0.00000000E+00  0.00000000E+00
  0.00000000E+00  0.00000000E+00  0.00000000E+00
