La1P2Rh2   [TET,TET,tP10] (STD_PRIM doi:
   1.00000000000000     
     4.2461547733803293    0.0000000000000000   -0.0000000000000000
    -0.0000000000000000    4.2461547733803293   -0.0000000000000000
    -0.0000000000000000    0.0000000000000000    9.5659009148793306
   2   4   4
Direct
  0.2500000000000000  0.2500000000000000  0.7424835542811049
  0.7500000000000000  0.7500000000000000  0.2575164457188950
  0.7500000000000000  0.2500000000000000  0.5000000000000000
  0.2500000000000000  0.7500000000000000  0.5000000000000000
  0.2500000000000000  0.2500000000000000  0.1323553382299263
  0.7500000000000000  0.7500000000000000  0.8676446617700737
  0.7500000000000000  0.2500000000000000  0.0000000000000000
  0.2500000000000000  0.7500000000000000  0.0000000000000000
  0.2500000000000000  0.2500000000000000  0.3918010594428784
  0.7500000000000000  0.7500000000000000  0.6081989405571216
 
  0.00000000E+00  0.00000000E+00  0.00000000E+00
  0.00000000E+00  0.00000000E+00  0.00000000E+00
  0.00000000E+00  0.00000000E+00  0.00000000E+00
  0.00000000E+00  0.00000000E+00  0.00000000E+00
  0.00000000E+00  0.00000000E+00  0.00000000E+00
  0.00000000E+00  0.00000000E+00  0.00000000E+00
  0.00000000E+00  0.00000000E+00  0.00000000E+00
  0.00000000E+00  0.00000000E+00  0.00000000E+00
  0.00000000E+00  0.00000000E+00  0.00000000E+00
  0.00000000E+00  0.00000000E+00  0.00000000E+00
