Cu1Dy1Sn1   [HEX,HEX,hP6] (STD_PRIM doi:
   1.00000000000000     
     2.2759801384381975   -3.9421132367926073    0.0000000000000000
     2.2758199722633954    3.9420207648084697    0.0000000000000000
     0.0000000000000000    0.0000000000000000    7.4238726795067445
   2   2   2
Direct
  0.6666894100607195  0.3333788201214318  0.2500000000000000
  0.3333105899392805  0.6666211798785682  0.7500000000000000
  0.0000000000000000  0.0000000000000000  0.0000000000000000
  0.0000000000000000  0.0000000000000000  0.5000000000000000
  0.6666596313757083  0.3333192627514237  0.7500000000000000
  0.3333403686242917  0.6666807372485763  0.2500000000000000
 
  0.00000000E+00  0.00000000E+00  0.00000000E+00
  0.00000000E+00  0.00000000E+00  0.00000000E+00
  0.00000000E+00  0.00000000E+00  0.00000000E+00
  0.00000000E+00  0.00000000E+00  0.00000000E+00
  0.00000000E+00  0.00000000E+00  0.00000000E+00
  0.00000000E+00  0.00000000E+00  0.00000000E+00
