As1La1Te1   [ORC,ORC,oP12] (STD_PRIM doi
   1.00000000000000     
     4.2174562120144650    0.0000000000000000    0.0000000000000000
     0.0000000000000000    7.9187500459757709    0.0000000000000000
     0.0000000000000000    0.0000000000000000   10.4942788557030777
   4   4   4
Direct
  0.2500000000000000  0.0899944752202412  0.9616059448030687
  0.7500000000000000  0.4100055247797588  0.4616059448030687
  0.7500000000000000  0.9100055247797588  0.0383940551969313
  0.2500000000000000  0.5899944752202412  0.5383940551969313
  0.2500000000000000  0.2234301089534489  0.6564923680335102
  0.7500000000000000  0.2765698910465511  0.1564923680335102
  0.7500000000000000  0.7765698910465512  0.3435076319664898
  0.2500000000000000  0.7234301089534488  0.8435076319664898
  0.2500000000000000  0.0946004318310256  0.3507232108595404
  0.7500000000000000  0.4053995681689744  0.8507232108595403
  0.7500000000000000  0.9053995681689744  0.6492767891404597
  0.2500000000000000  0.5946004318310256  0.1492767891404597
 
  0.00000000E+00  0.00000000E+00  0.00000000E+00
  0.00000000E+00  0.00000000E+00  0.00000000E+00
  0.00000000E+00  0.00000000E+00  0.00000000E+00
  0.00000000E+00  0.00000000E+00  0.00000000E+00
  0.00000000E+00  0.00000000E+00  0.00000000E+00
  0.00000000E+00  0.00000000E+00  0.00000000E+00
  0.00000000E+00  0.00000000E+00  0.00000000E+00
  0.00000000E+00  0.00000000E+00  0.00000000E+00
  0.00000000E+00  0.00000000E+00  0.00000000E+00
  0.00000000E+00  0.00000000E+00  0.00000000E+00
  0.00000000E+00  0.00000000E+00  0.00000000E+00
  0.00000000E+00  0.00000000E+00  0.00000000E+00
