Mg3N2   [BCC,BCC,cI80] (STD_PRIM doi:10.
   1.00000000000000     
    -5.0119958605856212    5.0119958605856212    5.0119958605856212
     5.0119958605856212   -5.0119958605856212    5.0119958605856212
     5.0119958605856212    5.0119958605856212   -5.0119958605856212
  24  16
Direct
  0.5417926647091854  0.5349318236137600  0.7715062308422402
  0.9582073352908146  0.7297135661330619  0.9931391589045818
  0.2634255927715198  0.7702864338669381  0.7284937691577598
  0.2365744072284801  0.9650681763862400  0.5068608410954182
  0.7715062308422402  0.5417926647091854  0.5349318236137600
  0.9931391589045818  0.9582073352908146  0.7297135661330619
  0.7284937691577598  0.2634255927715198  0.7702864338669381
  0.5068608410954182  0.2365744072284801  0.9650681763862400
  0.5349318236137600  0.7715062308422402  0.5417926647091854
  0.7297135661330619  0.9931391589045818  0.9582073352908146
  0.7702864338669381  0.7284937691577598  0.2634255927715198
  0.9650681763862400  0.5068608410954182  0.2365744072284801
  0.4582073352908146  0.4650681763862399  0.2284937691577598
  0.0417926647091853  0.2702864338669381  0.0068608410954182
  0.7365744072284801  0.2297135661330619  0.2715062308422402
  0.7634255927715199  0.0349318236137600  0.4931391589045818
  0.2284937691577598  0.4582073352908146  0.4650681763862399
  0.0068608410954182  0.0417926647091853  0.2702864338669381
  0.2715062308422402  0.7365744072284801  0.2297135661330619
  0.4931391589045818  0.7634255927715199  0.0349318236137600
  0.4650681763862399  0.2284937691577598  0.4582073352908146
  0.2702864338669381  0.0068608410954182  0.0417926647091853
  0.2297135661330619  0.2715062308422402  0.7365744072284801
  0.0349318236137600  0.4931391589045818  0.7634255927715199
  0.5000000000000000  0.5000000000000000  0.5000000000000000
 -0.0000000000000000  0.5000000000000000 -0.0000000000000000
  0.5000000000000000  0.0000000000000000  0.0000000000000000
  0.0000000000000000  0.0000000000000000  0.5000000000000000
  0.9688973808803187  0.2500000000000000  0.2188973808803187
  0.5311026191196813  0.7500000000000000  0.2811026191196813
  0.2188973808803187  0.9688973808803187  0.2500000000000000
  0.2811026191196813  0.5311026191196813  0.7500000000000000
  0.2500000000000000  0.2188973808803187  0.9688973808803187
  0.7500000000000000  0.2811026191196813  0.5311026191196813
  0.0311026191196813  0.7500000000000000  0.7811026191196813
  0.4688973808803187  0.2500000000000000  0.7188973808803187
  0.7811026191196813  0.0311026191196813  0.7500000000000000
  0.7188973808803187  0.4688973808803187  0.2500000000000000
  0.7500000000000000  0.7811026191196813  0.0311026191196813
  0.2500000000000000  0.7188973808803187  0.4688973808803187
 
  0.00000000E+00  0.00000000E+00  0.00000000E+00
  0.00000000E+00  0.00000000E+00  0.00000000E+00
  0.00000000E+00  0.00000000E+00  0.00000000E+00
  0.00000000E+00  0.00000000E+00  0.00000000E+00
  0.00000000E+00  0.00000000E+00  0.00000000E+00
  0.00000000E+00  0.00000000E+00  0.00000000E+00
  0.00000000E+00  0.00000000E+00  0.00000000E+00
  0.00000000E+00  0.00000000E+00  0.00000000E+00
  0.00000000E+00  0.00000000E+00  0.00000000E+00
  0.00000000E+00  0.00000000E+00  0.00000000E+00
  0.00000000E+00  0.00000000E+00  0.00000000E+00
  0.00000000E+00  0.00000000E+00  0.00000000E+00
  0.00000000E+00  0.00000000E+00  0.00000000E+00
  0.00000000E+00  0.00000000E+00  0.00000000E+00
  0.00000000E+00  0.00000000E+00  0.00000000E+00
  0.00000000E+00  0.00000000E+00  0.00000000E+00
  0.00000000E+00  0.00000000E+00  0.00000000E+00
  0.00000000E+00  0.00000000E+00  0.00000000E+00
  0.00000000E+00  0.00000000E+00  0.00000000E+00
  0.00000000E+00  0.00000000E+00  0.00000000E+00
  0.00000000E+00  0.00000000E+00  0.00000000E+00
  0.00000000E+00  0.00000000E+00  0.00000000E+00
  0.00000000E+00  0.00000000E+00  0.00000000E+00
  0.00000000E+00  0.00000000E+00  0.00000000E+00
  0.00000000E+00  0.00000000E+00  0.00000000E+00
  0.00000000E+00  0.00000000E+00  0.00000000E+00
  0.00000000E+00  0.00000000E+00  0.00000000E+00
  0.00000000E+00  0.00000000E+00  0.00000000E+00
  0.00000000E+00  0.00000000E+00  0.00000000E+00
  0.00000000E+00  0.00000000E+00  0.00000000E+00
  0.00000000E+00  0.00000000E+00  0.00000000E+00
  0.00000000E+00  0.00000000E+00  0.00000000E+00
  0.00000000E+00  0.00000000E+00  0.00000000E+00
  0.00000000E+00  0.00000000E+00  0.00000000E+00
  0.00000000E+00  0.00000000E+00  0.00000000E+00
  0.00000000E+00  0.00000000E+00  0.00000000E+00
  0.00000000E+00  0.00000000E+00  0.00000000E+00
  0.00000000E+00  0.00000000E+00  0.00000000E+00
  0.00000000E+00  0.00000000E+00  0.00000000E+00
  0.00000000E+00  0.00000000E+00  0.00000000E+00
