Cu4Mn1Sn1   [FCC,FCC,cF24] (STD_PRIM doi
   1.22474500000000     
     0.0000000000000000    2.8895765693337441    2.8895765693337441
     2.8895765693337441    0.0000000000000000    2.8895765693337441
     2.8895765693337441    2.8895765693337441    0.0000000000000000
   4   1   1
Direct
  0.3757732279388080  0.3757732279388080  0.3757732279388222
  0.8726803161835619  0.3757732279388080  0.3757732279388222
  0.3757732279388080  0.8726803161835619  0.3757732279388222
  0.3757732279388080  0.3757732279388080  0.8726803161835832
  0.7500000000000000  0.7500000000000000  0.7500000000000000
  0.0000000000000000  0.0000000000000000  0.0000000000000000
 
  0.00000000E+00  0.00000000E+00  0.00000000E+00
  0.00000000E+00  0.00000000E+00  0.00000000E+00
  0.00000000E+00  0.00000000E+00  0.00000000E+00
  0.00000000E+00  0.00000000E+00  0.00000000E+00
  0.00000000E+00  0.00000000E+00  0.00000000E+00
  0.00000000E+00  0.00000000E+00  0.00000000E+00
