Cu1In1Se2   [BCT,BCT2,tI16] (STD_PRIM do
   1.00000000000000     
    -2.9350708084173491    2.9350708084173491    5.8957006918131940
     2.9350708084173491   -2.9350708084173491    5.8957006918131940
     2.9350708084173491    2.9350708084173491   -5.8957006918131940
   2   2   4
Direct
  0.0000000000000000 -0.0000000000000000  0.0000000000000000
  0.7500000000000000  0.2500000000000000  0.5000000000000000
  0.5000000000000000  0.5000000000000000 -0.0000000000000000
  0.2500000000000000  0.7500000000000000  0.5000000000000000
  0.3750000000000000  0.3493012064482059  0.4743012064482059
  0.8750000000000000  0.9006987935517941  0.5256987935517941
  0.6506987935517941  0.1250000000000000  0.0256987935517941
  0.0993012064482059  0.6250000000000000  0.9743012064482059
 
  0.00000000E+00  0.00000000E+00  0.00000000E+00
  0.00000000E+00  0.00000000E+00  0.00000000E+00
  0.00000000E+00  0.00000000E+00  0.00000000E+00
  0.00000000E+00  0.00000000E+00  0.00000000E+00
  0.00000000E+00  0.00000000E+00  0.00000000E+00
  0.00000000E+00  0.00000000E+00  0.00000000E+00
  0.00000000E+00  0.00000000E+00  0.00000000E+00
  0.00000000E+00  0.00000000E+00  0.00000000E+00
