Al2Tb3   [TET,TET,tP20] (STD_PRIM doi:10
   1.00000000000000     
     8.2795822687835674    0.0000000000000000    0.0000000000000000
    -0.0000000000000000    8.2795822687835674    0.0000000000000000
     0.0000000000000000    0.0000000000000000    7.6147285552559811
   8  12
Direct
  0.3807485875545925  0.3807485875545925  0.0621738958722420
  0.6192514124454075  0.6192514124454075  0.0621738958722420
  0.1192514124454075  0.8807485875545925  0.5621738958722420
  0.8807485875545925  0.1192514124454075  0.5621738958722420
  0.3806312317803768  0.3806312317803768  0.4501772811119518
  0.6193687682196233  0.6193687682196233  0.4501772811119518
  0.1193687682196232  0.8806312317803767  0.9501772811119519
  0.8806312317803767  0.1193687682196232  0.9501772811119519
  0.0000000000000000  0.5000000000000000  0.0064332288146789
  0.0000000000000000  0.5000000000000000  0.5064332288146788
  0.5000000000000000  0.0000000000000000  0.5064332288146788
  0.5000000000000000  0.0000000000000000  0.0064332288146789
  0.1492570424963450  0.1492570424963450  0.2560907569891550
  0.8507429575036549  0.8507429575036549  0.2560907569891550
  0.3507429575036550  0.6492570424963451  0.7560907569891550
  0.6492570424963451  0.3507429575036550  0.7560907569891550
  0.2012174084974336  0.2012174084974336  0.7561248372119782
  0.7987825915025665  0.7987825915025665  0.7561248372119782
  0.2987825915025665  0.7012174084974335  0.2561248372119783
  0.7012174084974335  0.2987825915025665  0.2561248372119783
 
  0.00000000E+00  0.00000000E+00  0.00000000E+00
  0.00000000E+00  0.00000000E+00  0.00000000E+00
  0.00000000E+00  0.00000000E+00  0.00000000E+00
  0.00000000E+00  0.00000000E+00  0.00000000E+00
  0.00000000E+00  0.00000000E+00  0.00000000E+00
  0.00000000E+00  0.00000000E+00  0.00000000E+00
  0.00000000E+00  0.00000000E+00  0.00000000E+00
  0.00000000E+00  0.00000000E+00  0.00000000E+00
  0.00000000E+00  0.00000000E+00  0.00000000E+00
  0.00000000E+00  0.00000000E+00  0.00000000E+00
  0.00000000E+00  0.00000000E+00  0.00000000E+00
  0.00000000E+00  0.00000000E+00  0.00000000E+00
  0.00000000E+00  0.00000000E+00  0.00000000E+00
  0.00000000E+00  0.00000000E+00  0.00000000E+00
  0.00000000E+00  0.00000000E+00  0.00000000E+00
  0.00000000E+00  0.00000000E+00  0.00000000E+00
  0.00000000E+00  0.00000000E+00  0.00000000E+00
  0.00000000E+00  0.00000000E+00  0.00000000E+00
  0.00000000E+00  0.00000000E+00  0.00000000E+00
  0.00000000E+00  0.00000000E+00  0.00000000E+00
