K2O2   [ORCC,ORCC,oS16] (STD_PRIM doi:10
   1.01639600000000     
     3.3583207509472706   -3.4774325719834902    0.0000000000000000
     3.3583207509472706    3.4774325719834902    0.0000000000000000
     0.0000000000000000    0.0000000000000000    6.4580944565810592
   4   4
Direct
  0.5907939933775342  0.9092060066224658  0.7500000000000000
  0.9092060066224658  0.5907939933775342  0.2500000000000000
  0.4092060066224658  0.0907939933775342  0.2500000000000000
  0.0907939933775342  0.4092060066224658  0.7500000000000000
  0.9131540309128005  0.0868459690871996  0.0689924926396073
  0.5868459690871995  0.4131540309128004  0.5689924926396144
  0.4131540309128004  0.5868459690871995  0.4310075073603927
  0.0868459690871996  0.9131540309128005  0.9310075073603856
 
  0.00000000E+00  0.00000000E+00  0.00000000E+00
  0.00000000E+00  0.00000000E+00  0.00000000E+00
  0.00000000E+00  0.00000000E+00  0.00000000E+00
  0.00000000E+00  0.00000000E+00  0.00000000E+00
  0.00000000E+00  0.00000000E+00  0.00000000E+00
  0.00000000E+00  0.00000000E+00  0.00000000E+00
  0.00000000E+00  0.00000000E+00  0.00000000E+00
  0.00000000E+00  0.00000000E+00  0.00000000E+00
