Pb1S1   [ORC,ORC,oP8] (STD_PRIM doi:10.1
   1.00000000000000     
     4.2471323393447884   -0.0000000000000000    0.0000000000000000
    -0.0000000000000001    6.0015737245498180    0.0000000000000000
     0.0000000000000000    0.0000000000000000    8.4823293402813338
   4   4
Direct
  0.2500000000000000  0.2504166100584580  0.6249516554478232
  0.7500000000000000  0.7504166100584581  0.8750483445521768
  0.7500000000000000  0.7495833899415419  0.3750483445521769
  0.2500000000000000  0.2495833899415420  0.1249516554478231
  0.7500000000000000  0.2487311289098649  0.3731008991191860
  0.2500000000000000  0.7487311289098649  0.1268991008808140
  0.2500000000000000  0.7512688710901351  0.6268991008808139
  0.7500000000000000  0.2512688710901351  0.8731008991191861
 
  0.00000000E+00  0.00000000E+00  0.00000000E+00
  0.00000000E+00  0.00000000E+00  0.00000000E+00
  0.00000000E+00  0.00000000E+00  0.00000000E+00
  0.00000000E+00  0.00000000E+00  0.00000000E+00
  0.00000000E+00  0.00000000E+00  0.00000000E+00
  0.00000000E+00  0.00000000E+00  0.00000000E+00
  0.00000000E+00  0.00000000E+00  0.00000000E+00
  0.00000000E+00  0.00000000E+00  0.00000000E+00
