H1Mg1Ni1   [TET,TET,tP3] (STD_PRIM doi:1
   1.00000000000000     
     3.0766387691541408    0.0000000000000000    0.0000000000000000
     0.0000000000000000    3.0766387691541408   -0.0000000000000000
     0.0000000000000000    0.0000000000000000    3.2048879057991915
   1   1   1
Direct
  0.5000000000000000  0.5000000000000000  0.0000000000000000
  0.0000000000000000  0.0000000000000000  0.0000000000000000
  0.5000000000000000  0.5000000000000000  0.5000000000000000
 
  0.00000000E+00  0.00000000E+00  0.00000000E+00
  0.00000000E+00  0.00000000E+00  0.00000000E+00
  0.00000000E+00  0.00000000E+00  0.00000000E+00
