Cd2Sr1   [ORCI,ORCI,oI12] (STD_PRIM doi:
   1.00000000000000     
    -2.5688043595638717    4.0356854520954695    4.2845995066455798
     2.5688043595638717   -4.0356854520954695    4.2845995066455798
     2.5688043595638717    4.0356854520954695   -4.2845995066455798
   4   2
Direct
  0.7794410010241414  0.3356156295944011  0.4438253714297403
  0.3917902581646608  0.3356156295944011  0.0561746285702597
  0.6082097418353393  0.6643843704055988  0.9438253714297403
  0.2205589989758586  0.6643843704055988  0.5561746285702597
  0.7980166790511346  0.0480166790511345  0.7500000000000000
  0.2019833209488655  0.9519833209488654  0.2500000000000000
 
  0.00000000E+00  0.00000000E+00  0.00000000E+00
  0.00000000E+00  0.00000000E+00  0.00000000E+00
  0.00000000E+00  0.00000000E+00  0.00000000E+00
  0.00000000E+00  0.00000000E+00  0.00000000E+00
  0.00000000E+00  0.00000000E+00  0.00000000E+00
  0.00000000E+00  0.00000000E+00  0.00000000E+00
