O6Pt3Zn1   [ORCC,ORCC,oS20] (STD_PRIM do
   1.00000000000000     
     3.5947897801847724   -5.0014342674638028    0.0000000000000000
     3.5947897801847724    5.0014342674638028    0.0000000000000000
     0.0000000000000000    0.0000000000000000    3.1928354042945801
   6   3   1
Direct
  0.6474694201633617  0.3525305798366383  0.5000000000000000
  0.3525305798366383  0.6474694201633617  0.5000000000000000
  0.6609581605825068  0.9152125626389916  0.0000000000000000
  0.3390418394174933  0.0847874373610083  0.0000000000000000
  0.0847874373610083  0.3390418394174933  0.0000000000000000
  0.9152125626389916  0.6609581605825068  0.0000000000000000
  0.0000000000000000 -0.0000000000000000  0.0000000000000000
  0.5000000000000000  0.0000000000000000  0.5000000000000000
 -0.0000000000000000  0.5000000000000000  0.5000000000000000
  0.5000000000000000  0.5000000000000000  0.0000000000000000
 
  0.00000000E+00  0.00000000E+00  0.00000000E+00
  0.00000000E+00  0.00000000E+00  0.00000000E+00
  0.00000000E+00  0.00000000E+00  0.00000000E+00
  0.00000000E+00  0.00000000E+00  0.00000000E+00
  0.00000000E+00  0.00000000E+00  0.00000000E+00
  0.00000000E+00  0.00000000E+00  0.00000000E+00
  0.00000000E+00  0.00000000E+00  0.00000000E+00
  0.00000000E+00  0.00000000E+00  0.00000000E+00
  0.00000000E+00  0.00000000E+00  0.00000000E+00
  0.00000000E+00  0.00000000E+00  0.00000000E+00
