Al18Mg3Ti2   [FCC,FCC,cF184] (STD_PRIM d
   1.22474500000000     
    -0.0000000000000000    6.0500543164672909    6.0500543164672909
     6.0500543164672909   -0.0000000000000000    6.0500543164672909
     6.0500543164672909    6.0500543164672909    0.0000000000000000
  36   6   4
Direct
  0.8603750976904476  0.8603750976903979  0.1396249023095240
  0.1396249023088632  0.1396249023084724  0.8603750976908171
  0.8603750976905045  0.1396249023094956  0.1396249023094956
  0.1396249023090266  0.8603750976897584  0.8603750976907389
  0.8603750976904476  0.1396249023093819  0.8603750976905400
  0.1396249023088632  0.8603750976894884  0.1396249023098011
  0.1103750976897939  0.3896249023083730  0.3896249023098438
  0.3896249023092541  0.1103750976901349  0.1103750976906252
  0.1103750976897370  0.1103750976892752  0.3896249023098722
  0.3896249023090835  0.3896249023088562  0.1103750976907033
  0.3896249023088633  0.1103750976894883  0.3896249023098012
  0.1103750976899644  0.3896249023086430  0.1103750976907673
  0.5676095773467374  0.3009921501914963  0.8304061222696375
  0.8304061222687422  0.3009921501904660  0.5676095773473059
  0.3009921501912405  0.8304061222687067  0.3009921501920292
  0.3009921501913969  0.5676095773463395  0.3009921501919511
  0.5676095773467374  0.8304061222692822  0.3009921501918516
  0.8304061222689767  0.5676095773459843  0.3009921501920506
  0.3009921501911766  0.3009921501908213  0.5676095773471993
  0.3009921501912405  0.3009921501909208  0.8304061222698151
  0.5676095773468440  0.3009921501916669  0.3009921501918019
  0.8304061222689127  0.3009921501907503  0.3009921501920790
  0.3009921501912974  0.5676095773461548  0.8304061222697867
  0.3009921501910558  0.8304061222684367  0.5676095773472561
  0.4195938777298581  0.9490078498072815  0.6823904226533833
  0.6823904226525662  0.9490078498073810  0.4195938777307036
  0.9490078498080631  0.4195938777301778  0.9490078498083118
  0.9490078498076510  0.6823904226521754  0.9490078498085107
  0.9490078498075231  0.4195938777293252  0.6823904226534402
  0.9490078498077646  0.6823904226523460  0.4195938777306752
  0.6823904226529215  0.9490078498079636  0.9490078498083118
  0.4195938777299149  0.9490078498073810  0.9490078498084894
  0.9490078498078925  0.9490078498076794  0.6823904226532626
  0.9490078498075799  0.9490078498072104  0.4195938777307676
  0.4195938777300783  0.6823904226525236  0.9490078498084112
  0.6823904226525662  0.4195938777295952  0.9490078498084894
  0.4999999999995310  0.4999999999992468  0.5000000000002274
  0.7499999999997726  0.7499999999996305  0.7500000000001066
  0.1249999999994102  0.6249999999990621  0.6250000000002913
  0.6249999999997584  0.6249999999996305  0.1250000000001208
  0.6249999999994102  0.6249999999990621  0.6250000000002913
  0.6249999999995310  0.1249999999992468  0.6250000000002274
  0.6249999999998792  0.1249999999998082  0.1250000000000568
  0.1249999999992895  0.1249999999988773  0.6250000000003482
  0.1249999999994102  0.1249999999990621  0.1250000000002913
  0.1249999999995310  0.6249999999992468  0.1250000000002274
 
  0.00000000E+00  0.00000000E+00  0.00000000E+00
  0.00000000E+00  0.00000000E+00  0.00000000E+00
  0.00000000E+00  0.00000000E+00  0.00000000E+00
  0.00000000E+00  0.00000000E+00  0.00000000E+00
  0.00000000E+00  0.00000000E+00  0.00000000E+00
  0.00000000E+00  0.00000000E+00  0.00000000E+00
  0.00000000E+00  0.00000000E+00  0.00000000E+00
  0.00000000E+00  0.00000000E+00  0.00000000E+00
  0.00000000E+00  0.00000000E+00  0.00000000E+00
  0.00000000E+00  0.00000000E+00  0.00000000E+00
  0.00000000E+00  0.00000000E+00  0.00000000E+00
  0.00000000E+00  0.00000000E+00  0.00000000E+00
  0.00000000E+00  0.00000000E+00  0.00000000E+00
  0.00000000E+00  0.00000000E+00  0.00000000E+00
  0.00000000E+00  0.00000000E+00  0.00000000E+00
  0.00000000E+00  0.00000000E+00  0.00000000E+00
  0.00000000E+00  0.00000000E+00  0.00000000E+00
  0.00000000E+00  0.00000000E+00  0.00000000E+00
  0.00000000E+00  0.00000000E+00  0.00000000E+00
  0.00000000E+00  0.00000000E+00  0.00000000E+00
  0.00000000E+00  0.00000000E+00  0.00000000E+00
  0.00000000E+00  0.00000000E+00  0.00000000E+00
  0.00000000E+00  0.00000000E+00  0.00000000E+00
  0.00000000E+00  0.00000000E+00  0.00000000E+00
  0.00000000E+00  0.00000000E+00  0.00000000E+00
  0.00000000E+00  0.00000000E+00  0.00000000E+00
  0.00000000E+00  0.00000000E+00  0.00000000E+00
  0.00000000E+00  0.00000000E+00  0.00000000E+00
  0.00000000E+00  0.00000000E+00  0.00000000E+00
  0.00000000E+00  0.00000000E+00  0.00000000E+00
  0.00000000E+00  0.00000000E+00  0.00000000E+00
  0.00000000E+00  0.00000000E+00  0.00000000E+00
  0.00000000E+00  0.00000000E+00  0.00000000E+00
  0.00000000E+00  0.00000000E+00  0.00000000E+00
  0.00000000E+00  0.00000000E+00  0.00000000E+00
  0.00000000E+00  0.00000000E+00  0.00000000E+00
  0.00000000E+00  0.00000000E+00  0.00000000E+00
  0.00000000E+00  0.00000000E+00  0.00000000E+00
  0.00000000E+00  0.00000000E+00  0.00000000E+00
  0.00000000E+00  0.00000000E+00  0.00000000E+00
  0.00000000E+00  0.00000000E+00  0.00000000E+00
  0.00000000E+00  0.00000000E+00  0.00000000E+00
  0.00000000E+00  0.00000000E+00  0.00000000E+00
  0.00000000E+00  0.00000000E+00  0.00000000E+00
  0.00000000E+00  0.00000000E+00  0.00000000E+00
  0.00000000E+00  0.00000000E+00  0.00000000E+00
