Al2Th1   [HEX,HEX,hP3] (STD_PRIM doi:10.
   1.00000000000000     
     2.2157007877140980   -3.8377063386912043    0.0000000000000000
     2.2155378303666420    3.8376122552227843    0.0000000000000000
     0.0000000000000000    0.0000000000000000    4.2270086415132475
   2   1
Direct
  0.6666663305215607  0.3333326610431142  0.5000000000000000
  0.3333336694784394  0.6666673389568859  0.5000000000000000
 -0.0000000000000000 -0.0000000000000000  0.0000000000000000
 
  0.00000000E+00  0.00000000E+00  0.00000000E+00
  0.00000000E+00  0.00000000E+00  0.00000000E+00
  0.00000000E+00  0.00000000E+00  0.00000000E+00
