As2Ir2La1   [TET,TET,tP10] (STD_PRIM doi
   1.00000000000000     
     4.3202091756416943   -0.0000000000000000   -0.0000000000000000
     0.0000000000000000    4.3202091756416943   -0.0000000000000000
     0.0000000000000000   -0.0000000000000000   10.0998541981747376
   4   4   2
Direct
  0.7500000000000000  0.2500000000000000 -0.0000000000000000
  0.2500000000000000  0.7500000000000000  0.0000000000000000
  0.2500000000000000  0.2500000000000000  0.3614125583535440
  0.7500000000000000  0.7500000000000000  0.6385874416464560
  0.7500000000000000  0.2500000000000000  0.5000000000000000
  0.2500000000000000  0.7500000000000000  0.5000000000000000
  0.2500000000000000  0.2500000000000000  0.1161299209357588
  0.7500000000000000  0.7500000000000000  0.8838700790642412
  0.2500000000000000  0.2500000000000000  0.7533997705991196
  0.7500000000000000  0.7500000000000000  0.2466002294008805
 
  0.00000000E+00  0.00000000E+00  0.00000000E+00
  0.00000000E+00  0.00000000E+00  0.00000000E+00
  0.00000000E+00  0.00000000E+00  0.00000000E+00
  0.00000000E+00  0.00000000E+00  0.00000000E+00
  0.00000000E+00  0.00000000E+00  0.00000000E+00
  0.00000000E+00  0.00000000E+00  0.00000000E+00
  0.00000000E+00  0.00000000E+00  0.00000000E+00
  0.00000000E+00  0.00000000E+00  0.00000000E+00
  0.00000000E+00  0.00000000E+00  0.00000000E+00
  0.00000000E+00  0.00000000E+00  0.00000000E+00
