B1C2Sc2   [BCT,BCT2,tI10] (STD_PRIM doi:
   1.00000000000000     
    -1.6904748887145049    1.6904748887145049    5.4185706217485023
     1.6904748887145049   -1.6904748887145049    5.4185706217485023
     1.6904748887145049    1.6904748887145049   -5.4185706217485023
   1   2   2
Direct
 -0.0000000000000000 -0.0000000000000000  0.0000000000000000
  0.1372791911750921  0.1372791911750921  0.0000000000000000
  0.8627208088249079  0.8627208088249079  0.0000000000000000
  0.3480467111487449  0.3480467111487449  0.0000000000000000
  0.6519532888512551  0.6519532888512551 -0.0000000000000000
 
  0.00000000E+00  0.00000000E+00  0.00000000E+00
  0.00000000E+00  0.00000000E+00  0.00000000E+00
  0.00000000E+00  0.00000000E+00  0.00000000E+00
  0.00000000E+00  0.00000000E+00  0.00000000E+00
  0.00000000E+00  0.00000000E+00  0.00000000E+00
