Ge1   [BCT,BCT1,tI4] (STD_PRIM doi:10.10
   1.00000000000000     
    -2.5801116145413499    2.5801116145413499    1.4358388203949868
     2.5801116145413499   -2.5801116145413499    1.4358388203949868
     2.5801116145413499    2.5801116145413499   -1.4358388203949868
   2
Direct
 -0.0000000000000000 -0.0000000000000000 -0.0000000000000000
  0.2500000000000000  0.7500000000000000  0.5000000000000000
 
  0.00000000E+00  0.00000000E+00  0.00000000E+00
  0.00000000E+00  0.00000000E+00  0.00000000E+00
