As1Ru1Zr1   [HEX,HEX,hP9] (STD_PRIM doi:
   1.00000000000000     
     3.3184429177922872   -5.7477486119376788    0.0000000000000000
     3.3184429177922872    5.7477486119376788    0.0000000000000000
     0.0000000000000000    0.0000000000000000    3.9217174605171650
   3   3   3
Direct
  0.3333267381556012  0.6666703822367448  0.0000000000000000
  0.6666703822367448  0.3333267381556012  0.0000000000000000
  0.0000001768137772  0.0000001768137772  0.5000000000000000
  0.2441795462406258  0.0000079900923680  0.0000000000000000
  0.0000079900923680  0.2441795462406258  0.0000000000000000
  0.7558128188577182  0.7558128188577182  0.0000000000000000
  0.5835881910732328  0.9999939518214369  0.5000000000000000
  0.9999939518214369  0.5835881910732328  0.5000000000000000
  0.4164202047085023  0.4164202047085023  0.5000000000000000
 
  0.00000000E+00  0.00000000E+00  0.00000000E+00
  0.00000000E+00  0.00000000E+00  0.00000000E+00
  0.00000000E+00  0.00000000E+00  0.00000000E+00
  0.00000000E+00  0.00000000E+00  0.00000000E+00
  0.00000000E+00  0.00000000E+00  0.00000000E+00
  0.00000000E+00  0.00000000E+00  0.00000000E+00
  0.00000000E+00  0.00000000E+00  0.00000000E+00
  0.00000000E+00  0.00000000E+00  0.00000000E+00
  0.00000000E+00  0.00000000E+00  0.00000000E+00
