Ge1Mn1Rh1 #189 - (Ge1Mn1Rh1_ICSD_637069)
   1.00000000000000     
     3.3245182050842033   -5.7585583906395597    0.0000000000000000
     3.3245182050842033    5.7585583906395597    0.0000000000000000
     0.0000000000000000    0.0000000000000000    3.6556963115948253
   3   3   3
Direct
  0.3333194202581250  0.6666812003356670  0.0000000000000000
  0.6666812003356670  0.3333194202581250  0.0000000000000000
  0.9999967753809932  0.9999967753809932  0.5000000000000000
  0.5913611276216196  0.9999945909531069  0.5000000000000000
  0.9999945909531069  0.5913611276216196  0.5000000000000000
  0.4086478031230544  0.4086478031230544  0.5000000000000000
  0.2555978311393695  0.0000097943107545  0.0000000000000000
  0.0000097943107545  0.2555978311393695  0.0000000000000000
  0.7443914568773097  0.7443914568773097  0.0000000000000000
 
  0.00000000E+00  0.00000000E+00  0.00000000E+00
  0.00000000E+00  0.00000000E+00  0.00000000E+00
  0.00000000E+00  0.00000000E+00  0.00000000E+00
  0.00000000E+00  0.00000000E+00  0.00000000E+00
  0.00000000E+00  0.00000000E+00  0.00000000E+00
  0.00000000E+00  0.00000000E+00  0.00000000E+00
  0.00000000E+00  0.00000000E+00  0.00000000E+00
  0.00000000E+00  0.00000000E+00  0.00000000E+00
  0.00000000E+00  0.00000000E+00  0.00000000E+00
