O7Ru2Y2   [FCC,FCC,cF88] (STD_PRIM doi:1
   1.22474500000000     
     0.0000000000000000    4.1960852232788897    4.1960852232788897
     4.1960852232788897    0.0000000000000000    4.1960852232788897
     4.1960852232788897    4.1960852232788897    0.0000000000000000
  14   4   4
Direct
  0.2123961249668511  0.2123961249668511  0.7876038750331489
  0.7876038750331489  0.7876038750331489  0.2123961249668511
  0.2123961249668511  0.7876038750331489  0.7876038750331489
  0.7876038750331489  0.2123961249668511  0.2123961249668511
  0.7876038750331489  0.2123961249668511  0.7876038750331489
  0.2123961249668511  0.7876038750331489  0.2123961249668511
  0.4623961249668511  0.0376038750331489  0.0376038750331489
  0.0376038750331489  0.4623961249668511  0.4623961249668511
  0.4623961249668511  0.4623961249668511  0.0376038750331489
  0.0376038750331489  0.0376038750331489  0.4623961249668511
  0.4623961249668511  0.0376038750331489  0.4623961249668511
  0.0376038750331489  0.4623961249668511  0.0376038750331489
  0.5000000000000000  0.5000000000000000  0.5000000000000000
  0.7500000000000000  0.7500000000000000  0.7500000000000000
  0.1250000000000000  0.1250000000000000  0.6250000000000000
  0.6250000000000000  0.1250000000000000  0.1250000000000000
  0.1250000000000000  0.6250000000000000  0.1250000000000000
  0.1250000000000000  0.1250000000000000  0.1250000000000000
  0.6250000000000000  0.6250000000000000  0.1250000000000000
  0.1250000000000000  0.6250000000000000  0.6250000000000000
  0.6250000000000000  0.1250000000000000  0.6250000000000000
  0.6250000000000000  0.6250000000000000  0.6250000000000000
 
  0.00000000E+00  0.00000000E+00  0.00000000E+00
  0.00000000E+00  0.00000000E+00  0.00000000E+00
  0.00000000E+00  0.00000000E+00  0.00000000E+00
  0.00000000E+00  0.00000000E+00  0.00000000E+00
  0.00000000E+00  0.00000000E+00  0.00000000E+00
  0.00000000E+00  0.00000000E+00  0.00000000E+00
  0.00000000E+00  0.00000000E+00  0.00000000E+00
  0.00000000E+00  0.00000000E+00  0.00000000E+00
  0.00000000E+00  0.00000000E+00  0.00000000E+00
  0.00000000E+00  0.00000000E+00  0.00000000E+00
  0.00000000E+00  0.00000000E+00  0.00000000E+00
  0.00000000E+00  0.00000000E+00  0.00000000E+00
  0.00000000E+00  0.00000000E+00  0.00000000E+00
  0.00000000E+00  0.00000000E+00  0.00000000E+00
  0.00000000E+00  0.00000000E+00  0.00000000E+00
  0.00000000E+00  0.00000000E+00  0.00000000E+00
  0.00000000E+00  0.00000000E+00  0.00000000E+00
  0.00000000E+00  0.00000000E+00  0.00000000E+00
  0.00000000E+00  0.00000000E+00  0.00000000E+00
  0.00000000E+00  0.00000000E+00  0.00000000E+00
  0.00000000E+00  0.00000000E+00  0.00000000E+00
  0.00000000E+00  0.00000000E+00  0.00000000E+00
