Co1Sb3   [BCC,BCC,cI32] (STD_PRIM doi:10
   1.00000000000000     
    -4.5436727805301924    4.5436727805301924    4.5436727805301924
     4.5436727805301924   -4.5436727805301924    4.5436727805301924
     4.5436727805301924    4.5436727805301924   -4.5436727805301924
   4  12
Direct
  0.0000000000000000  0.0000000000000000  0.5000000000000000
 -0.0000000000000000  0.5000000000000000  0.0000000000000000
  0.5000000000000000 -0.0000000000000000 -0.0000000000000000
  0.5000000000000000  0.5000000000000000  0.5000000000000000
  0.3339658084689359  0.1592016086156311  0.4931674170845670
  0.6660341915310641  0.1592016086156311  0.8252358001466952
  0.3339658084689359  0.8407983913843690  0.1747641998533049
  0.6660341915310641  0.8407983913843690  0.5068325829154330
  0.8407983913843690  0.1747641998533049  0.3339658084689359
  0.8407983913843690  0.5068325829154330  0.6660341915310641
  0.1592016086156311  0.4931674170845670  0.3339658084689359
  0.1592016086156311  0.8252358001466952  0.6660341915310641
  0.8252358001466952  0.6660341915310641  0.1592016086156311
  0.4931674170845670  0.3339658084689359  0.1592016086156311
  0.5068325829154330  0.6660341915310641  0.8407983913843690
  0.1747641998533049  0.3339658084689359  0.8407983913843690
 
  0.00000000E+00  0.00000000E+00  0.00000000E+00
  0.00000000E+00  0.00000000E+00  0.00000000E+00
  0.00000000E+00  0.00000000E+00  0.00000000E+00
  0.00000000E+00  0.00000000E+00  0.00000000E+00
  0.00000000E+00  0.00000000E+00  0.00000000E+00
  0.00000000E+00  0.00000000E+00  0.00000000E+00
  0.00000000E+00  0.00000000E+00  0.00000000E+00
  0.00000000E+00  0.00000000E+00  0.00000000E+00
  0.00000000E+00  0.00000000E+00  0.00000000E+00
  0.00000000E+00  0.00000000E+00  0.00000000E+00
  0.00000000E+00  0.00000000E+00  0.00000000E+00
  0.00000000E+00  0.00000000E+00  0.00000000E+00
  0.00000000E+00  0.00000000E+00  0.00000000E+00
  0.00000000E+00  0.00000000E+00  0.00000000E+00
  0.00000000E+00  0.00000000E+00  0.00000000E+00
  0.00000000E+00  0.00000000E+00  0.00000000E+00
