Mn1Se3Th1   [ORCC,ORCC,oS20] (STD_PRIM d
   1.00000000000000     
     2.0571116082578711   -6.5805930229373626   -0.0000000000000000
     2.0571116082578711    6.5805930229373626    0.0000000000000000
     0.0000000000000000   -0.0000000000000000    9.4830412860757551
   2   6   2
Direct
  0.0000000000000000  0.0000000000000000  0.0000000000000000
 -0.0000000000000000 -0.0000000000000000  0.5000000000000000
  0.3561200033238716  0.6438799966761285  0.9431211956578680
  0.6438799966761285  0.3561200033238716  0.4431211956578680
  0.3561200033238716  0.6438799966761285  0.5568788043421320
  0.6438799966761285  0.3561200033238716  0.0568788043421320
  0.0817776984831624  0.9182223015168377  0.7500000000000000
  0.9182223015168377  0.0817776984831624  0.2500000000000000
  0.7489903800824675  0.2510096199175326  0.7500000000000000
  0.2510096199175326  0.7489903800824675  0.2500000000000000
 
  0.00000000E+00  0.00000000E+00  0.00000000E+00
  0.00000000E+00  0.00000000E+00  0.00000000E+00
  0.00000000E+00  0.00000000E+00  0.00000000E+00
  0.00000000E+00  0.00000000E+00  0.00000000E+00
  0.00000000E+00  0.00000000E+00  0.00000000E+00
  0.00000000E+00  0.00000000E+00  0.00000000E+00
  0.00000000E+00  0.00000000E+00  0.00000000E+00
  0.00000000E+00  0.00000000E+00  0.00000000E+00
  0.00000000E+00  0.00000000E+00  0.00000000E+00
  0.00000000E+00  0.00000000E+00  0.00000000E+00
