Na1Nb1Se2   [HEX,HEX,hP8] (STD_PRIM doi:
   1.00000000000000     
     1.7900156140363495   -3.1003979898525600    0.0000000000000000
     1.7899944659931488    3.1003857800241250   -0.0000000000000000
     0.0000000000000000    0.0000000000000000   15.0430108543706265
   2   2   4
Direct
  0.0000000000000000  0.0000000000000000 -0.0000000000000000
 -0.0000000000000000 -0.0000000000000000  0.5000000000000000
  0.0000183880075525  0.0000367760150979  0.2500000000000000
  0.9999816119924475  0.9999632239849021  0.7500000000000000
  0.6666868260179908  0.3333736520359745  0.1400260268093879
  0.3333131739820092  0.6666263479640255  0.6400260268093879
  0.3333131739820092  0.6666263479640255  0.8599739731906121
  0.6666868260179908  0.3333736520359745  0.3599739731906121
 
  0.00000000E+00  0.00000000E+00  0.00000000E+00
  0.00000000E+00  0.00000000E+00  0.00000000E+00
  0.00000000E+00  0.00000000E+00  0.00000000E+00
  0.00000000E+00  0.00000000E+00  0.00000000E+00
  0.00000000E+00  0.00000000E+00  0.00000000E+00
  0.00000000E+00  0.00000000E+00  0.00000000E+00
  0.00000000E+00  0.00000000E+00  0.00000000E+00
  0.00000000E+00  0.00000000E+00  0.00000000E+00
