Ge1O2   [TET,TET,tP6] (STD_PRIM doi:10.1
   1.01639600000000     
     4.4110744488270903   -0.0000000000000000    0.0000000000000000
    -0.0000000000000000    4.4110744488270903    0.0000000000000000
     0.0000000000000000    0.0000000000000000    2.8656420736500916
   2   4
Direct
  0.0000000000000000  0.0000000000000000  0.0000000000000000
  0.5000000000000000  0.5000000000000000  0.5000000000000000
  0.3068310548359715  0.3068310548359715 -0.0000000000000000
  0.6931689451640286  0.6931689451640286  0.0000000000000000
  0.1931689451640285  0.8068310548359714  0.5000000000000000
  0.8068310548359714  0.1931689451640285  0.5000000000000000
 
  0.00000000E+00  0.00000000E+00  0.00000000E+00
  0.00000000E+00  0.00000000E+00  0.00000000E+00
  0.00000000E+00  0.00000000E+00  0.00000000E+00
  0.00000000E+00  0.00000000E+00  0.00000000E+00
  0.00000000E+00  0.00000000E+00  0.00000000E+00
  0.00000000E+00  0.00000000E+00  0.00000000E+00
