Ho5Sb3   [HEX,HEX,hP16] (STD_PRIM doi:10
   1.00000000000000     
     4.4722430344192468   -7.7461521594101450    0.0000000000000000
     4.4723628887863516    7.7462213573612564    0.0000000000000000
    -0.0000000000000000   -0.0000000000000000    6.2732438839491245
  10   6
Direct
  0.0000037338187739  0.7534074534408718  0.2500000000000000
  0.2465962803779092  0.2465925465591282  0.2500000000000000
  0.7533898091340897  0.0000000000000000  0.2500000000000000
  0.9999962661812261  0.2465925465591282  0.7500000000000000
  0.7534037196220909  0.7534074534408718  0.7500000000000000
  0.2466101908659104 -0.0000000000000000  0.7500000000000000
  0.6666609733027263  0.3333219466054455  0.0000000000000000
  0.3333390266972737  0.6666780533945545  0.5000000000000000
  0.3333390266972737  0.6666780533945545 -0.0000000000000000
  0.6666609733027263  0.3333219466054455  0.5000000000000000
  0.9999985887406553  0.3892987666349244  0.2500000000000000
  0.6106998221057309  0.6107012333650756  0.2500000000000000
  0.3893088749246956  0.0000000000000000  0.2500000000000000
  0.0000014112593447  0.6107012333650756  0.7500000000000000
  0.3893001778942691  0.3892987666349244  0.7500000000000000
  0.6106911250753043  0.0000000000000000  0.7500000000000000
 
  0.00000000E+00  0.00000000E+00  0.00000000E+00
  0.00000000E+00  0.00000000E+00  0.00000000E+00
  0.00000000E+00  0.00000000E+00  0.00000000E+00
  0.00000000E+00  0.00000000E+00  0.00000000E+00
  0.00000000E+00  0.00000000E+00  0.00000000E+00
  0.00000000E+00  0.00000000E+00  0.00000000E+00
  0.00000000E+00  0.00000000E+00  0.00000000E+00
  0.00000000E+00  0.00000000E+00  0.00000000E+00
  0.00000000E+00  0.00000000E+00  0.00000000E+00
  0.00000000E+00  0.00000000E+00  0.00000000E+00
  0.00000000E+00  0.00000000E+00  0.00000000E+00
  0.00000000E+00  0.00000000E+00  0.00000000E+00
  0.00000000E+00  0.00000000E+00  0.00000000E+00
  0.00000000E+00  0.00000000E+00  0.00000000E+00
  0.00000000E+00  0.00000000E+00  0.00000000E+00
  0.00000000E+00  0.00000000E+00  0.00000000E+00
