Br1O4Y3 #63 - (Br1O4Y3_ICSD_419384) - Br
   1.00000000000000     
     2.0525409866761475   -5.9076461858600551    0.0000000000000000
     2.0525409866761475    5.9076461858600551    0.0000000000000000
     0.0000000000000000    0.0000000000000000   11.7228660302495395
   2   8   6
Direct
  0.0000000000000000  0.0000000000000000  0.0000000000000000
  0.0000000000000000  0.0000000000000000  0.5000000000000000
  0.5664302462797628  0.4335697537202371  0.7500000000000000
  0.4335697537202371  0.5664302462797628  0.2500000000000000
  0.8092093288447784  0.1907906711552217  0.7500000000000000
  0.1907906711552217  0.8092093288447784  0.2500000000000000
  0.7298476491393634  0.2701523508606366  0.4103735918918201
  0.2701523508606366  0.7298476491393634  0.9103735918918201
  0.7298476491393634  0.2701523508606366  0.0896264081081799
  0.2701523508606366  0.7298476491393634  0.5896264081081799
  0.3817359332709701  0.6182640667290299  0.7500000000000000
  0.6182640667290299  0.3817359332709701  0.2500000000000000
  0.6861061705889238  0.3138938294110764  0.8968235142400647
  0.3138938294110764  0.6861061705889238  0.3968235142400646
  0.6861061705889238  0.3138938294110764  0.6031764857599353
  0.3138938294110764  0.6861061705889238  0.1031764857599353
 
  0.00000000E+00  0.00000000E+00  0.00000000E+00
  0.00000000E+00  0.00000000E+00  0.00000000E+00
  0.00000000E+00  0.00000000E+00  0.00000000E+00
  0.00000000E+00  0.00000000E+00  0.00000000E+00
  0.00000000E+00  0.00000000E+00  0.00000000E+00
  0.00000000E+00  0.00000000E+00  0.00000000E+00
  0.00000000E+00  0.00000000E+00  0.00000000E+00
  0.00000000E+00  0.00000000E+00  0.00000000E+00
  0.00000000E+00  0.00000000E+00  0.00000000E+00
  0.00000000E+00  0.00000000E+00  0.00000000E+00
  0.00000000E+00  0.00000000E+00  0.00000000E+00
  0.00000000E+00  0.00000000E+00  0.00000000E+00
  0.00000000E+00  0.00000000E+00  0.00000000E+00
  0.00000000E+00  0.00000000E+00  0.00000000E+00
  0.00000000E+00  0.00000000E+00  0.00000000E+00
  0.00000000E+00  0.00000000E+00  0.00000000E+00
