O2W1   [TET,TET,tP6] (STD_PRIM doi:10.10
   1.00000000000000     
     5.0317343019444474    0.0000000000000000    0.0000000000000000
     0.0000000000000000    5.0317343019444474    0.0000000000000000
     0.0000000000000000    0.0000000000000000    2.7156676974889549
   4   2
Direct
  0.2798804582282546  0.2798804582282546  0.0000000000000000
  0.7201195417717454  0.7201195417717454 -0.0000000000000000
  0.2201195417717454  0.7798804582282546  0.5000000000000000
  0.7798804582282546  0.2201195417717454  0.5000000000000000
  0.0000000000000000  0.0000000000000000  0.0000000000000000
  0.5000000000000000  0.5000000000000000  0.5000000000000000
 
  0.00000000E+00  0.00000000E+00  0.00000000E+00
  0.00000000E+00  0.00000000E+00  0.00000000E+00
  0.00000000E+00  0.00000000E+00  0.00000000E+00
  0.00000000E+00  0.00000000E+00  0.00000000E+00
  0.00000000E+00  0.00000000E+00  0.00000000E+00
  0.00000000E+00  0.00000000E+00  0.00000000E+00
