Al18Mg3Mo2   [FCC,FCC,cF184] (STD_PRIM d
   1.22474500000000     
    -0.0000000000000000    5.9946804763273338    5.9946804763273338
     5.9946804763273338   -0.0000000000000000    5.9946804763273338
     5.9946804763273338    5.9946804763273338    0.0000000000000000
  36   6   4
Direct
  0.4827696389398282  0.7672303610601717  0.2672303610601718
  0.7672303610601717  0.4827696389398282  0.9827696389398283
  0.7672303610601717  0.4827696389398282  0.2672303610601718
  0.4827696389398282  0.7672303610601717  0.9827696389398283
  0.4827696389398282  0.4827696389398282  0.2672303610601718
  0.7672303610601717  0.7672303610601717  0.9827696389398283
  0.5172303610601717  0.2327696389398282  0.0172303610601718
  0.2327696389398282  0.5172303610601717  0.7327696389398283
  0.2327696389398282  0.5172303610601717  0.0172303610601718
  0.5172303610601717  0.2327696389398282  0.7327696389398283
  0.5172303610601717  0.5172303610601717  0.7327696389398283
  0.2327696389398282  0.2327696389398282  0.0172303610601718
  0.3228113965176605  0.3228113965176605  0.5588102953497255
  0.3228113965176605  0.3228113965176605  0.2955669116149535
  0.0588102953497255  0.7955669116149535  0.8228113965176606
  0.7955669116149535  0.0588102953497255  0.8228113965176606
  0.3228113965176605  0.7955669116149535  0.5588102953497255
  0.3228113965176605  0.0588102953497255  0.2955669116149535
  0.7955669116149535  0.3228113965176605  0.8228113965176606
  0.0588102953497255  0.3228113965176605  0.8228113965176606
  0.7955669116149535  0.3228113965176605  0.5588102953497255
  0.0588102953497255  0.3228113965176605  0.2955669116149535
  0.3228113965176605  0.0588102953497255  0.8228113965176606
  0.3228113965176605  0.7955669116149535  0.8228113965176606
  0.6771886034823394  0.6771886034823394  0.7044330883850465
  0.6771886034823394  0.6771886034823394  0.4411897046502745
  0.9411897046502745  0.2044330883850465  0.1771886034823395
  0.2044330883850465  0.9411897046502745  0.1771886034823395
  0.6771886034823394  0.2044330883850465  0.1771886034823395
  0.6771886034823394  0.9411897046502745  0.1771886034823395
  0.2044330883850465  0.6771886034823394  0.4411897046502745
  0.9411897046502745  0.6771886034823394  0.7044330883850465
  0.2044330883850465  0.6771886034823394  0.1771886034823395
  0.9411897046502745  0.6771886034823394  0.1771886034823395
  0.6771886034823394  0.9411897046502745  0.7044330883850465
  0.6771886034823394  0.2044330883850465  0.4411897046502745
  0.0000000000000000 -0.0000000000000000  0.0000000000000000
 -0.0000000000000000  0.0000000000000000  0.5000000000000000
  0.5000000000000000  0.0000000000000000  0.5000000000000000
  0.0000000000000000  0.5000000000000000  0.5000000000000000
  0.1250000000000000  0.1250000000000000  0.6250000000000000
  0.8750000000000000  0.8750000000000000  0.3750000000000000
  0.5000000000000000  0.5000000000000000  0.5000000000000000
  0.5000000000000000  0.5000000000000000 -0.0000000000000000
 -0.0000000000000000  0.5000000000000000  0.0000000000000000
  0.5000000000000000 -0.0000000000000000  0.0000000000000000
 
  0.00000000E+00  0.00000000E+00  0.00000000E+00
  0.00000000E+00  0.00000000E+00  0.00000000E+00
  0.00000000E+00  0.00000000E+00  0.00000000E+00
  0.00000000E+00  0.00000000E+00  0.00000000E+00
  0.00000000E+00  0.00000000E+00  0.00000000E+00
  0.00000000E+00  0.00000000E+00  0.00000000E+00
  0.00000000E+00  0.00000000E+00  0.00000000E+00
  0.00000000E+00  0.00000000E+00  0.00000000E+00
  0.00000000E+00  0.00000000E+00  0.00000000E+00
  0.00000000E+00  0.00000000E+00  0.00000000E+00
  0.00000000E+00  0.00000000E+00  0.00000000E+00
  0.00000000E+00  0.00000000E+00  0.00000000E+00
  0.00000000E+00  0.00000000E+00  0.00000000E+00
  0.00000000E+00  0.00000000E+00  0.00000000E+00
  0.00000000E+00  0.00000000E+00  0.00000000E+00
  0.00000000E+00  0.00000000E+00  0.00000000E+00
  0.00000000E+00  0.00000000E+00  0.00000000E+00
  0.00000000E+00  0.00000000E+00  0.00000000E+00
  0.00000000E+00  0.00000000E+00  0.00000000E+00
  0.00000000E+00  0.00000000E+00  0.00000000E+00
  0.00000000E+00  0.00000000E+00  0.00000000E+00
  0.00000000E+00  0.00000000E+00  0.00000000E+00
  0.00000000E+00  0.00000000E+00  0.00000000E+00
  0.00000000E+00  0.00000000E+00  0.00000000E+00
  0.00000000E+00  0.00000000E+00  0.00000000E+00
  0.00000000E+00  0.00000000E+00  0.00000000E+00
  0.00000000E+00  0.00000000E+00  0.00000000E+00
  0.00000000E+00  0.00000000E+00  0.00000000E+00
  0.00000000E+00  0.00000000E+00  0.00000000E+00
  0.00000000E+00  0.00000000E+00  0.00000000E+00
  0.00000000E+00  0.00000000E+00  0.00000000E+00
  0.00000000E+00  0.00000000E+00  0.00000000E+00
  0.00000000E+00  0.00000000E+00  0.00000000E+00
  0.00000000E+00  0.00000000E+00  0.00000000E+00
  0.00000000E+00  0.00000000E+00  0.00000000E+00
  0.00000000E+00  0.00000000E+00  0.00000000E+00
  0.00000000E+00  0.00000000E+00  0.00000000E+00
  0.00000000E+00  0.00000000E+00  0.00000000E+00
  0.00000000E+00  0.00000000E+00  0.00000000E+00
  0.00000000E+00  0.00000000E+00  0.00000000E+00
  0.00000000E+00  0.00000000E+00  0.00000000E+00
  0.00000000E+00  0.00000000E+00  0.00000000E+00
  0.00000000E+00  0.00000000E+00  0.00000000E+00
  0.00000000E+00  0.00000000E+00  0.00000000E+00
  0.00000000E+00  0.00000000E+00  0.00000000E+00
  0.00000000E+00  0.00000000E+00  0.00000000E+00
