As2Mg3   [BCC,BCC,cI80] (STD_PRIM doi:10
   1.00000000000000     
    -6.2329829380061046    6.2329829380061046    6.2329829380061046
     6.2329829380061046   -6.2329829380061046    6.2329829380061046
     6.2329829380061046    6.2329829380061046   -6.2329829380061046
  16  24
Direct
 -0.0000000000000000  0.5000000000000000 -0.0000000000000000
  0.5000000000000000 -0.0000000000000000 -0.0000000000000000
  0.5000000000000000  0.5000000000000000  0.5000000000000000
 -0.0000000000000000 -0.0000000000000000  0.5000000000000000
  0.2719840176151176  0.0219840176151176  0.2500000000000000
  0.2280159823848824  0.4780159823848824  0.7500000000000000
  0.7500000000000000  0.7719840176151176  0.0219840176151176
  0.2500000000000000  0.7280159823848824  0.4780159823848824
  0.9780159823848824  0.7500000000000000  0.7280159823848824
  0.5219840176151176  0.2500000000000000  0.7719840176151176
  0.7280159823848824  0.9780159823848824  0.7500000000000000
  0.7719840176151176  0.5219840176151176  0.2500000000000000
  0.2500000000000000  0.2280159823848824  0.9780159823848824
  0.7500000000000000  0.2719840176151176  0.5219840176151176
  0.0219840176151176  0.2500000000000000  0.2719840176151176
  0.4780159823848824  0.7500000000000000  0.2280159823848824
  0.9931974147079067  0.4691558509984657  0.2342141221664477
  0.7650582711679820  0.0308441490015343  0.0240415637094409
  0.5068025852920933  0.7410167074585411  0.4759584362905591
  0.7349417288320180  0.7589832925414589  0.2657858778335523
  0.7657858778335522  0.2349417288320180  0.7589832925414589
  0.9759584362905590  0.0068025852920934  0.7410167074585411
  0.5240415637094410  0.2650582711679820  0.0308441490015343
  0.7342141221664478  0.4931974147079066  0.4691558509984657
  0.2410167074585411  0.4759584362905591  0.0068025852920934
  0.2589832925414590  0.2657858778335523  0.2349417288320180
  0.9691558509984657  0.2342141221664477  0.4931974147079066
  0.5308441490015343  0.0240415637094409  0.2650582711679820
  0.0068025852920934  0.5308441490015343  0.7657858778335522
  0.2349417288320180  0.9691558509984657  0.9759584362905590
  0.4931974147079066  0.2589832925414590  0.5240415637094410
  0.2650582711679820  0.2410167074585411  0.7342141221664478
  0.2342141221664477  0.7650582711679820  0.2410167074585411
  0.0240415637094409  0.9931974147079067  0.2589832925414590
  0.4759584362905591  0.7349417288320180  0.9691558509984657
  0.2657858778335523  0.5068025852920933  0.5308441490015343
  0.7589832925414589  0.5240415637094410  0.9931974147079067
  0.7410167074585411  0.7342141221664478  0.7650582711679820
  0.0308441490015343  0.7657858778335522  0.5068025852920933
  0.4691558509984657  0.9759584362905590  0.7349417288320180
 
  0.00000000E+00  0.00000000E+00  0.00000000E+00
  0.00000000E+00  0.00000000E+00  0.00000000E+00
  0.00000000E+00  0.00000000E+00  0.00000000E+00
  0.00000000E+00  0.00000000E+00  0.00000000E+00
  0.00000000E+00  0.00000000E+00  0.00000000E+00
  0.00000000E+00  0.00000000E+00  0.00000000E+00
  0.00000000E+00  0.00000000E+00  0.00000000E+00
  0.00000000E+00  0.00000000E+00  0.00000000E+00
  0.00000000E+00  0.00000000E+00  0.00000000E+00
  0.00000000E+00  0.00000000E+00  0.00000000E+00
  0.00000000E+00  0.00000000E+00  0.00000000E+00
  0.00000000E+00  0.00000000E+00  0.00000000E+00
  0.00000000E+00  0.00000000E+00  0.00000000E+00
  0.00000000E+00  0.00000000E+00  0.00000000E+00
  0.00000000E+00  0.00000000E+00  0.00000000E+00
  0.00000000E+00  0.00000000E+00  0.00000000E+00
  0.00000000E+00  0.00000000E+00  0.00000000E+00
  0.00000000E+00  0.00000000E+00  0.00000000E+00
  0.00000000E+00  0.00000000E+00  0.00000000E+00
  0.00000000E+00  0.00000000E+00  0.00000000E+00
  0.00000000E+00  0.00000000E+00  0.00000000E+00
  0.00000000E+00  0.00000000E+00  0.00000000E+00
  0.00000000E+00  0.00000000E+00  0.00000000E+00
  0.00000000E+00  0.00000000E+00  0.00000000E+00
  0.00000000E+00  0.00000000E+00  0.00000000E+00
  0.00000000E+00  0.00000000E+00  0.00000000E+00
  0.00000000E+00  0.00000000E+00  0.00000000E+00
  0.00000000E+00  0.00000000E+00  0.00000000E+00
  0.00000000E+00  0.00000000E+00  0.00000000E+00
  0.00000000E+00  0.00000000E+00  0.00000000E+00
  0.00000000E+00  0.00000000E+00  0.00000000E+00
  0.00000000E+00  0.00000000E+00  0.00000000E+00
  0.00000000E+00  0.00000000E+00  0.00000000E+00
  0.00000000E+00  0.00000000E+00  0.00000000E+00
  0.00000000E+00  0.00000000E+00  0.00000000E+00
  0.00000000E+00  0.00000000E+00  0.00000000E+00
  0.00000000E+00  0.00000000E+00  0.00000000E+00
  0.00000000E+00  0.00000000E+00  0.00000000E+00
  0.00000000E+00  0.00000000E+00  0.00000000E+00
  0.00000000E+00  0.00000000E+00  0.00000000E+00
