Au1Ho1Sn1   [HEX,HEX,hP6] (STD_PRIM doi:
   1.00000000000000     
     2.3594588808601626   -4.0865839020406423    0.0000000000000000
     2.3594588808601626    4.0865839020406423    0.0000000000000000
     0.0000000000000000    0.0000000000000000    7.4442676202536466
   2   2   2
Direct
  0.3333173162392835  0.6666826837607165  0.0791941574450729
  0.6666826837607165  0.3333173162392835  0.5791941574450729
  0.0000059048824386  0.9999940951175614  0.7501748745090565
  0.9999940951175614  0.0000059048824386  0.2501748745090565
  0.3333201052514848  0.6666798947485153  0.4767309680458643
  0.6666798947485153  0.3333201052514848  0.9767309680458642
 
  0.00000000E+00  0.00000000E+00  0.00000000E+00
  0.00000000E+00  0.00000000E+00  0.00000000E+00
  0.00000000E+00  0.00000000E+00  0.00000000E+00
  0.00000000E+00  0.00000000E+00  0.00000000E+00
  0.00000000E+00  0.00000000E+00  0.00000000E+00
  0.00000000E+00  0.00000000E+00  0.00000000E+00
