Ba1P1Pt1   [CUB,CUB,cP12] (STD_PRIM doi:
   1.00000000000000     
     6.5986066867918183    0.0000000000000000    0.0000000000000000
    -0.0000000000000000    6.5986066867918183    0.0000000000000000
     0.0000000000000000    0.0000000000000000    6.5986066867918183
   4   4   4
Direct
  0.1398347186762412  0.1398347186762412  0.1398347186762412
  0.3601652813237588  0.8601652813237588  0.6398347186762412
  0.8601652813237588  0.6398347186762412  0.3601652813237588
  0.6398347186762412  0.3601652813237588  0.8601652813237588
  0.4162614365112351  0.4162614365112351  0.4162614365112351
  0.0837385634887649  0.5837385634887649  0.9162614365112351
  0.5837385634887649  0.9162614365112351  0.0837385634887649
  0.9162614365112351  0.0837385634887649  0.5837385634887649
  0.8492937536740504  0.8492937536740504  0.8492937536740504
  0.6507062463259496  0.1507062463259497  0.3492937536740503
  0.1507062463259497  0.3492937536740503  0.6507062463259496
  0.3492937536740503  0.6507062463259496  0.1507062463259497
 
  0.00000000E+00  0.00000000E+00  0.00000000E+00
  0.00000000E+00  0.00000000E+00  0.00000000E+00
  0.00000000E+00  0.00000000E+00  0.00000000E+00
  0.00000000E+00  0.00000000E+00  0.00000000E+00
  0.00000000E+00  0.00000000E+00  0.00000000E+00
  0.00000000E+00  0.00000000E+00  0.00000000E+00
  0.00000000E+00  0.00000000E+00  0.00000000E+00
  0.00000000E+00  0.00000000E+00  0.00000000E+00
  0.00000000E+00  0.00000000E+00  0.00000000E+00
  0.00000000E+00  0.00000000E+00  0.00000000E+00
  0.00000000E+00  0.00000000E+00  0.00000000E+00
  0.00000000E+00  0.00000000E+00  0.00000000E+00
