H2Mg1   [ORC,ORC,oP12] (STD_PRIM doi:10.
   1.00000000000000     
     3.1007531725872584   -0.0000000000000000    0.0000000000000000
    -0.0000000000000000    5.2711556641395596    0.0000000000000000
     0.0000000000000000    0.0000000000000000    5.9645174023357468
   8   4
Direct
  0.2500000000000000  0.3607716694974872  0.5744617842374450
  0.7500000000000000  0.1392283305025128  0.0744617842374450
  0.7500000000000000  0.6392283305025128  0.4255382157625551
  0.2500000000000000  0.8607716694974872  0.9255382157625550
  0.2500000000000000  0.9769174789567605  0.3318248206285193
  0.7500000000000000  0.5230825210432395  0.8318248206285194
  0.7500000000000000  0.0230825210432395  0.6681751793714806
  0.2500000000000000  0.4769174789567605  0.1681751793714807
  0.2500000000000000  0.2478365837754820  0.8968186398095829
  0.7500000000000000  0.2521634162245180  0.3968186398095829
  0.7500000000000000  0.7521634162245181  0.1031813601904171
  0.2500000000000000  0.7478365837754819  0.6031813601904171
 
  0.00000000E+00  0.00000000E+00  0.00000000E+00
  0.00000000E+00  0.00000000E+00  0.00000000E+00
  0.00000000E+00  0.00000000E+00  0.00000000E+00
  0.00000000E+00  0.00000000E+00  0.00000000E+00
  0.00000000E+00  0.00000000E+00  0.00000000E+00
  0.00000000E+00  0.00000000E+00  0.00000000E+00
  0.00000000E+00  0.00000000E+00  0.00000000E+00
  0.00000000E+00  0.00000000E+00  0.00000000E+00
  0.00000000E+00  0.00000000E+00  0.00000000E+00
  0.00000000E+00  0.00000000E+00  0.00000000E+00
  0.00000000E+00  0.00000000E+00  0.00000000E+00
  0.00000000E+00  0.00000000E+00  0.00000000E+00
