Mn1Sc2Se4   [FCC,FCC,cF56] (STD_PRIM doi
   1.22474500000000     
     0.0000000000000000    4.6206526942824730    4.6206526942824730
     4.6206526942824730    0.0000000000000000    4.6206526942824730
     4.6206526942824730    4.6206526942824730    0.0000000000000000
   2   4   8
Direct
  0.0000000000000000  0.0000000000000000  0.0000000000000000
  0.7500000000000000  0.7500000000000000  0.7500000000000000
  0.3750000000000000  0.3750000000000000  0.8750000000000000
  0.3750000000000000  0.8750000000000000  0.3750000000000000
  0.8750000000000000  0.3750000000000000  0.3750000000000000
  0.3750000000000000  0.3750000000000000  0.3750000000000000
  0.6177685414296121  0.6177685414296121  0.1466943757111778
  0.6177685414296121  0.1466943757111778  0.6177685414296121
  0.1466943757111778  0.6177685414296121  0.6177685414296121
  0.6177685414296121  0.6177685414296121  0.6177685414296121
  0.1322314585703879  0.6033056242888222  0.1322314585703879
  0.1322314585703879  0.1322314585703879  0.6033056242888222
  0.6033056242888222  0.1322314585703879  0.1322314585703879
  0.1322314585703879  0.1322314585703879  0.1322314585703879
 
  0.00000000E+00  0.00000000E+00  0.00000000E+00
  0.00000000E+00  0.00000000E+00  0.00000000E+00
  0.00000000E+00  0.00000000E+00  0.00000000E+00
  0.00000000E+00  0.00000000E+00  0.00000000E+00
  0.00000000E+00  0.00000000E+00  0.00000000E+00
  0.00000000E+00  0.00000000E+00  0.00000000E+00
  0.00000000E+00  0.00000000E+00  0.00000000E+00
  0.00000000E+00  0.00000000E+00  0.00000000E+00
  0.00000000E+00  0.00000000E+00  0.00000000E+00
  0.00000000E+00  0.00000000E+00  0.00000000E+00
  0.00000000E+00  0.00000000E+00  0.00000000E+00
  0.00000000E+00  0.00000000E+00  0.00000000E+00
  0.00000000E+00  0.00000000E+00  0.00000000E+00
  0.00000000E+00  0.00000000E+00  0.00000000E+00
