I6Pd1Rb2   [FCC,FCC,cF36] (STD_PRIM doi:
   1.22474500000000     
    -0.0000000000000000    4.6574632914417036    4.6574632914417036
     4.6574632914417036    0.0000000000000000    4.6574632914417036
     4.6574632914417036    4.6574632914417036    0.0000000000000000
   6   1   2
Direct
  0.2391959895663354  0.7608040104336645  0.2391959895663354
  0.7608040104336645  0.2391959895663354  0.7608040104336645
  0.2391959895663354  0.7608040104336645  0.7608040104336645
  0.7608040104336645  0.2391959895663354  0.2391959895663354
  0.2391959895663354  0.2391959895663354  0.7608040104336645
  0.7608040104336645  0.7608040104336645  0.2391959895663354
  0.0000000000000000  0.0000000000000000  0.0000000000000000
  0.7500000000000000  0.7500000000000000  0.7500000000000000
  0.2500000000000000  0.2500000000000000  0.2500000000000000
 
  0.00000000E+00  0.00000000E+00  0.00000000E+00
  0.00000000E+00  0.00000000E+00  0.00000000E+00
  0.00000000E+00  0.00000000E+00  0.00000000E+00
  0.00000000E+00  0.00000000E+00  0.00000000E+00
  0.00000000E+00  0.00000000E+00  0.00000000E+00
  0.00000000E+00  0.00000000E+00  0.00000000E+00
  0.00000000E+00  0.00000000E+00  0.00000000E+00
  0.00000000E+00  0.00000000E+00  0.00000000E+00
  0.00000000E+00  0.00000000E+00  0.00000000E+00
