Cs1H1   [FCC,FCC,cF8] (STD_PRIM doi:10.1
   1.22474500000000     
     0.0000000000000000    2.6127812933750110    2.6127812933750110
     2.6127812933750110    0.0000000000000000    2.6127812933750110
     2.6127812933750110    2.6127812933750110    0.0000000000000000
   1   1
Direct
  0.0000000000000000  0.0000000000000000  0.0000000000000000
  0.5000000000000000  0.5000000000000000  0.5000000000000000
 
  0.00000000E+00  0.00000000E+00  0.00000000E+00
  0.00000000E+00  0.00000000E+00  0.00000000E+00
