Cu6O10Sr4   [ORCC,ORCC,oS20] (STD_PRIM d
   1.00000000000000     
     1.9812483071020359   -9.7735979620778242    0.0000000000000000
     1.9812483071020359    9.7735979620778242    0.0000000000000000
     0.0000000000000000    0.0000000000000000    3.5072875455076069
   3   5   2
Direct
 -0.0000000000000000 -0.0000000000000000  0.0000000000000000
  0.8007580759548807  0.1992419240451193  0.0000000000000000
  0.1992419240451193  0.8007580759548807  0.0000000000000000
  0.5000000000000000  0.5000000000000000  0.0000000000000000
  0.8982081502252985  0.1017918497747014  0.0000000000000000
  0.1017918497747014  0.8982081502252985  0.0000000000000000
  0.2965400471382191  0.7034599528617809  0.0000000000000000
  0.7034599528617809  0.2965400471382191  0.0000000000000000
  0.3987964596376998  0.6012035403623003  0.5000000000000000
  0.6012035403623003  0.3987964596376998  0.5000000000000000
 
  0.00000000E+00  0.00000000E+00  0.00000000E+00
  0.00000000E+00  0.00000000E+00  0.00000000E+00
  0.00000000E+00  0.00000000E+00  0.00000000E+00
  0.00000000E+00  0.00000000E+00  0.00000000E+00
  0.00000000E+00  0.00000000E+00  0.00000000E+00
  0.00000000E+00  0.00000000E+00  0.00000000E+00
  0.00000000E+00  0.00000000E+00  0.00000000E+00
  0.00000000E+00  0.00000000E+00  0.00000000E+00
  0.00000000E+00  0.00000000E+00  0.00000000E+00
  0.00000000E+00  0.00000000E+00  0.00000000E+00
