K5Sb4   [MCLC,MCLC1,mS18] (STD_PRIM doi:
   1.00000000000000     
     2.7709963674840012    6.2662627983687704   -0.0211509261213081
    -2.7709963674840012    6.2662627983687704   -0.0211509261213081
     0.0000000000000000    4.2784161450399694   10.5777960211869484
   5   4
Direct
  0.8990651305010759  0.8990651305010759  0.3918556904484271
  0.1009348694989241  0.1009348694989241  0.6081443095515729
  0.2459495955445341  0.2459495955445341  0.1652915920028485
  0.7540504044554659  0.7540504044554659  0.8347084079971515
 -0.0000000000000000 -0.0000000000000000 -0.0000000000000000
  0.5442624221676596  0.5442624221676596  0.1753211454849974
  0.4557375778323403  0.4557375778323403  0.8246788545150027
  0.6056161974210952  0.6056161974210952  0.3907432383554720
  0.3943838025789048  0.3943838025789048  0.6092567616445281
 
  0.00000000E+00  0.00000000E+00  0.00000000E+00
  0.00000000E+00  0.00000000E+00  0.00000000E+00
  0.00000000E+00  0.00000000E+00  0.00000000E+00
  0.00000000E+00  0.00000000E+00  0.00000000E+00
  0.00000000E+00  0.00000000E+00  0.00000000E+00
  0.00000000E+00  0.00000000E+00  0.00000000E+00
  0.00000000E+00  0.00000000E+00  0.00000000E+00
  0.00000000E+00  0.00000000E+00  0.00000000E+00
  0.00000000E+00  0.00000000E+00  0.00000000E+00
