Hf5P7Pd9   [ORCC,ORCC,oS42] (STD_PRIM do
   1.00000000000000     
     3.2751365857339181  -13.3119474163707050    0.0000000000000000
     3.2751365857339181   13.3119474163707050    0.0000000000000000
     0.0000000000000000    0.0000000000000000    3.7669743401628351
   5   7   9
Direct
  0.1799733905796448  0.0034238155218026  0.0000000000000000
  0.0034238155218026  0.1799733905796448  0.0000000000000000
  0.4732369983373610  0.4732369983373610  0.0000000000000000
  0.4635271650343768  0.9220010504730146  0.5000000000000000
  0.9220010504730146  0.4635271650343768  0.5000000000000000
  0.8715797859226682  0.8715797859226682  0.0000000000000000
  0.6216914172900708  0.1897928566750162  0.0000000000000000
  0.1897928566750162  0.6216914172900708  0.0000000000000000
  0.4434684134158228  0.3081853555276613  0.5000000000000000
  0.3081853555276613  0.4434684134158228  0.5000000000000000
  0.0349116258262751  0.7479202095142119  0.5000000000000000
  0.7479202095142119  0.0349116258262751  0.5000000000000000
  0.7999315501462972  0.6833401312222327  0.5000000000000000
  0.6833401312222327  0.7999315501462972  0.5000000000000000
  0.4632204502715751  0.1494547530146349  0.5000000000000000
  0.1494547530146349  0.4632204502715751  0.5000000000000000
  0.2183286332019442  0.8266885858465861  0.0000000000000000
  0.8266885858465861  0.2183286332019442  0.0000000000000000
  0.1185967101996612  0.1185967101996612  0.5000000000000000
  0.7831651789687992  0.5040619230103575  0.0000000000000000
  0.5040619230103575  0.7831651789687992  0.0000000000000000
 
  0.00000000E+00  0.00000000E+00  0.00000000E+00
  0.00000000E+00  0.00000000E+00  0.00000000E+00
  0.00000000E+00  0.00000000E+00  0.00000000E+00
  0.00000000E+00  0.00000000E+00  0.00000000E+00
  0.00000000E+00  0.00000000E+00  0.00000000E+00
  0.00000000E+00  0.00000000E+00  0.00000000E+00
  0.00000000E+00  0.00000000E+00  0.00000000E+00
  0.00000000E+00  0.00000000E+00  0.00000000E+00
  0.00000000E+00  0.00000000E+00  0.00000000E+00
  0.00000000E+00  0.00000000E+00  0.00000000E+00
  0.00000000E+00  0.00000000E+00  0.00000000E+00
  0.00000000E+00  0.00000000E+00  0.00000000E+00
  0.00000000E+00  0.00000000E+00  0.00000000E+00
  0.00000000E+00  0.00000000E+00  0.00000000E+00
  0.00000000E+00  0.00000000E+00  0.00000000E+00
  0.00000000E+00  0.00000000E+00  0.00000000E+00
  0.00000000E+00  0.00000000E+00  0.00000000E+00
  0.00000000E+00  0.00000000E+00  0.00000000E+00
  0.00000000E+00  0.00000000E+00  0.00000000E+00
  0.00000000E+00  0.00000000E+00  0.00000000E+00
  0.00000000E+00  0.00000000E+00  0.00000000E+00
