Ca1O3Ti1   [BCT,BCT2,tI20] (STD_PRIM doi
   1.00000000000000     
    -2.7272184252345859    2.7272184252345859    3.8571074850035796
     2.7272184252345859   -2.7272184252345859    3.8571074850035796
     2.7909744815605060    2.7909744815605060   -3.8571074850035796
   2   6   2
Direct
  0.7499812303390740  0.2499812303390740  0.4999624606781481
  0.2500187696609260  0.7500187696609260  0.5000375393218519
  0.7500000000000000  0.7500000000000000  0.5000000000000000
  0.2500000000000000  0.2500000000000000  0.5000000000000000
  0.1887576494362904  0.3112423505637096  0.0000000000000000
  0.8112423505637096  0.6887576494362904  0.0000000000000000
  0.3112896144441422  0.8112896144441422  0.0000000000000000
  0.6887103855558578  0.1887103855558578  0.0000000000000000
  0.0000000000000000  0.0000000000000000  0.0000000000000000
  0.5000000000000000  0.5000000000000000  0.0000000000000000
 
  0.00000000E+00  0.00000000E+00  0.00000000E+00
  0.00000000E+00  0.00000000E+00  0.00000000E+00
  0.00000000E+00  0.00000000E+00  0.00000000E+00
  0.00000000E+00  0.00000000E+00  0.00000000E+00
  0.00000000E+00  0.00000000E+00  0.00000000E+00
  0.00000000E+00  0.00000000E+00  0.00000000E+00
  0.00000000E+00  0.00000000E+00  0.00000000E+00
  0.00000000E+00  0.00000000E+00  0.00000000E+00
  0.00000000E+00  0.00000000E+00  0.00000000E+00
  0.00000000E+00  0.00000000E+00  0.00000000E+00
