Al4Cu9   [CUB,CUB,cP52] (STD_PRIM doi:10
   1.00000000000000     
     8.7131553454420381   -0.0000000000000000    0.0000000000000000
    -0.0000000000000000    8.7131553454420381   -0.0000000000000000
    -0.0000000000000000   -0.0000000000000000    8.7131553454420381
  16  36
Direct
  0.1193989737382617  0.1193989737382617  0.1193989737382617
  0.8806010262617383  0.8806010262617383  0.1193989737382617
  0.8806010262617383  0.1193989737382617  0.8806010262617383
  0.1193989737382617  0.8806010262617383  0.8806010262617383
  0.8098760790660599  0.8098760790660599  0.5349322694776498
  0.1901239209339402  0.1901239209339402  0.5349322694776498
  0.1901239209339402  0.8098760790660599  0.4650677305223502
  0.8098760790660599  0.1901239209339402  0.4650677305223502
  0.5349322694776498  0.8098760790660599  0.8098760790660599
  0.5349322694776498  0.1901239209339402  0.1901239209339402
  0.4650677305223502  0.1901239209339402  0.8098760790660599
  0.4650677305223502  0.8098760790660599  0.1901239209339402
  0.8098760790660599  0.5349322694776498  0.8098760790660599
  0.1901239209339402  0.5349322694776498  0.1901239209339402
  0.8098760790660599  0.4650677305223502  0.1901239209339402
  0.1901239209339402  0.4650677305223502  0.8098760790660599
  0.6059650250345527  0.6059650250345527  0.6059650250345527
  0.3940349749654473  0.3940349749654473  0.6059650250345527
  0.3940349749654473  0.6059650250345527  0.3940349749654473
  0.6059650250345527  0.3940349749654473  0.3940349749654473
  0.8300412142756189  0.8300412142756189  0.8300412142756189
  0.1699587857243810  0.1699587857243810  0.8300412142756189
  0.1699587857243810  0.8300412142756189  0.1699587857243810
  0.8300412142756189  0.1699587857243810  0.1699587857243810
  0.3254033904754791  0.3254033904754791  0.3254033904754791
  0.6745966095245209  0.6745966095245209  0.3254033904754791
  0.6745966095245209  0.3254033904754791  0.6745966095245209
  0.3254033904754791  0.6745966095245209  0.6745966095245209
  0.3559355407079152 -0.0000000000000000  0.0000000000000000
  0.6440644592920850  0.0000000000000000 -0.0000000000000000
 -0.0000000000000000  0.3559355407079152 -0.0000000000000000
  0.0000000000000000  0.6440644592920850  0.0000000000000000
 -0.0000000000000000 -0.0000000000000000  0.3559355407079152
  0.0000000000000000  0.0000000000000000  0.6440644592920850
  0.8549519586804503  0.5000000000000000  0.5000000000000000
  0.1450480413195497  0.5000000000000000  0.5000000000000000
  0.5000000000000000  0.8549519586804503  0.5000000000000000
  0.5000000000000000  0.1450480413195497  0.5000000000000000
  0.5000000000000000  0.5000000000000000  0.8549519586804503
  0.5000000000000000  0.5000000000000000  0.1450480413195497
  0.3154543207634732  0.3154543207634732  0.0321677472298476
  0.6845456792365269  0.6845456792365269  0.0321677472298476
  0.6845456792365269  0.3154543207634732  0.9678322527701525
  0.3154543207634732  0.6845456792365269  0.9678322527701525
  0.0321677472298476  0.3154543207634732  0.3154543207634732
  0.0321677472298476  0.6845456792365269  0.6845456792365269
  0.9678322527701525  0.6845456792365269  0.3154543207634732
  0.9678322527701525  0.3154543207634732  0.6845456792365269
  0.3154543207634732  0.0321677472298476  0.3154543207634732
  0.6845456792365269  0.0321677472298476  0.6845456792365269
  0.3154543207634732  0.9678322527701525  0.6845456792365269
  0.6845456792365269  0.9678322527701525  0.3154543207634732
 
  0.00000000E+00  0.00000000E+00  0.00000000E+00
  0.00000000E+00  0.00000000E+00  0.00000000E+00
  0.00000000E+00  0.00000000E+00  0.00000000E+00
  0.00000000E+00  0.00000000E+00  0.00000000E+00
  0.00000000E+00  0.00000000E+00  0.00000000E+00
  0.00000000E+00  0.00000000E+00  0.00000000E+00
  0.00000000E+00  0.00000000E+00  0.00000000E+00
  0.00000000E+00  0.00000000E+00  0.00000000E+00
  0.00000000E+00  0.00000000E+00  0.00000000E+00
  0.00000000E+00  0.00000000E+00  0.00000000E+00
  0.00000000E+00  0.00000000E+00  0.00000000E+00
  0.00000000E+00  0.00000000E+00  0.00000000E+00
  0.00000000E+00  0.00000000E+00  0.00000000E+00
  0.00000000E+00  0.00000000E+00  0.00000000E+00
  0.00000000E+00  0.00000000E+00  0.00000000E+00
  0.00000000E+00  0.00000000E+00  0.00000000E+00
  0.00000000E+00  0.00000000E+00  0.00000000E+00
  0.00000000E+00  0.00000000E+00  0.00000000E+00
  0.00000000E+00  0.00000000E+00  0.00000000E+00
  0.00000000E+00  0.00000000E+00  0.00000000E+00
  0.00000000E+00  0.00000000E+00  0.00000000E+00
  0.00000000E+00  0.00000000E+00  0.00000000E+00
  0.00000000E+00  0.00000000E+00  0.00000000E+00
  0.00000000E+00  0.00000000E+00  0.00000000E+00
  0.00000000E+00  0.00000000E+00  0.00000000E+00
  0.00000000E+00  0.00000000E+00  0.00000000E+00
  0.00000000E+00  0.00000000E+00  0.00000000E+00
  0.00000000E+00  0.00000000E+00  0.00000000E+00
  0.00000000E+00  0.00000000E+00  0.00000000E+00
  0.00000000E+00  0.00000000E+00  0.00000000E+00
  0.00000000E+00  0.00000000E+00  0.00000000E+00
  0.00000000E+00  0.00000000E+00  0.00000000E+00
  0.00000000E+00  0.00000000E+00  0.00000000E+00
  0.00000000E+00  0.00000000E+00  0.00000000E+00
  0.00000000E+00  0.00000000E+00  0.00000000E+00
  0.00000000E+00  0.00000000E+00  0.00000000E+00
  0.00000000E+00  0.00000000E+00  0.00000000E+00
  0.00000000E+00  0.00000000E+00  0.00000000E+00
  0.00000000E+00  0.00000000E+00  0.00000000E+00
  0.00000000E+00  0.00000000E+00  0.00000000E+00
  0.00000000E+00  0.00000000E+00  0.00000000E+00
  0.00000000E+00  0.00000000E+00  0.00000000E+00
  0.00000000E+00  0.00000000E+00  0.00000000E+00
  0.00000000E+00  0.00000000E+00  0.00000000E+00
  0.00000000E+00  0.00000000E+00  0.00000000E+00
  0.00000000E+00  0.00000000E+00  0.00000000E+00
  0.00000000E+00  0.00000000E+00  0.00000000E+00
  0.00000000E+00  0.00000000E+00  0.00000000E+00
  0.00000000E+00  0.00000000E+00  0.00000000E+00
  0.00000000E+00  0.00000000E+00  0.00000000E+00
  0.00000000E+00  0.00000000E+00  0.00000000E+00
  0.00000000E+00  0.00000000E+00  0.00000000E+00
