Er1Mg2   [HEX,HEX,hP12] (STD_PRIM doi:10
   1.00000000000000     
     3.0064006509620533   -5.2072386753744206    0.0000000000000000
     3.0061037067391894    5.2070672345474147    0.0000000000000000
    -0.0000000000000000    0.0000000000000000    9.7665504557691598
   4   8
Direct
  0.6666902211035524  0.3333804422070976  0.0625402746675086
  0.3333097788964477  0.6666195577929025  0.5625402746675086
  0.3333097788964477  0.6666195577929025  0.9374597253324914
  0.6666902211035524  0.3333804422070976  0.4374597253324914
 -0.0000000000000000 -0.0000000000000000  0.0000000000000000
  0.0000000000000000  0.0000000000000000  0.5000000000000000
  0.6587824837614791  0.8293990472570638  0.2500000000000000
  0.1706165634955849  0.8293990472570638  0.2500000000000000
  0.1706070934938265  0.3412141869876530  0.2500000000000000
  0.3412175162385210  0.1706009527429361  0.7500000000000000
  0.8293834365044152  0.1706009527429361  0.7500000000000000
  0.8293929065061735  0.6587858130123471  0.7500000000000000
 
  0.00000000E+00  0.00000000E+00  0.00000000E+00
  0.00000000E+00  0.00000000E+00  0.00000000E+00
  0.00000000E+00  0.00000000E+00  0.00000000E+00
  0.00000000E+00  0.00000000E+00  0.00000000E+00
  0.00000000E+00  0.00000000E+00  0.00000000E+00
  0.00000000E+00  0.00000000E+00  0.00000000E+00
  0.00000000E+00  0.00000000E+00  0.00000000E+00
  0.00000000E+00  0.00000000E+00  0.00000000E+00
  0.00000000E+00  0.00000000E+00  0.00000000E+00
  0.00000000E+00  0.00000000E+00  0.00000000E+00
  0.00000000E+00  0.00000000E+00  0.00000000E+00
  0.00000000E+00  0.00000000E+00  0.00000000E+00
