Al2Cd1Te4   [BCT,BCT2,tI14] (STD_PRIM do
   1.00000000000000     
    -3.1437186405575979    3.1437175948741634    5.9493528086559104
     3.1437186405575979   -3.1437175948741634    5.9493528086559104
     3.1437175948741634    3.1437186405575979   -5.9493528086559104
   2   1   4
Direct
  0.5000000000000000  0.5000000000000000 -0.0000000000000000
  0.7500000000000000  0.2500000000000000  0.5000000000000000
  0.0000000000000000 -0.0000000000000000 -0.0000000000000000
  0.8803643494813737  0.8645060209799310  0.4695309567228114
  0.3949750642571197  0.4108333927585623  0.5304690432771887
  0.1354939790200690  0.6050249357428804  0.0158583285014427
  0.5891666072414375  0.1196356505186263  0.9841416714985574
 
  0.00000000E+00  0.00000000E+00  0.00000000E+00
  0.00000000E+00  0.00000000E+00  0.00000000E+00
  0.00000000E+00  0.00000000E+00  0.00000000E+00
  0.00000000E+00  0.00000000E+00  0.00000000E+00
  0.00000000E+00  0.00000000E+00  0.00000000E+00
  0.00000000E+00  0.00000000E+00  0.00000000E+00
  0.00000000E+00  0.00000000E+00  0.00000000E+00
