Hf1Pd3   [CUB,CUB,cP4] (STD_PRIM doi:10.
   1.00000000000000     
     3.9936494293178448    0.0000000000000000   -0.0000000000000000
     0.0000000000000000    3.9936494293178448    0.0000000000000000
     0.0000000000000000    0.0000000000000000    3.9936494293178448
   1   3
Direct
  0.0000000000000000  0.0000000000000000  0.0000000000000000
  0.0000000000000000  0.5000000000000000  0.5000000000000000
  0.5000000000000000  0.0000000000000000  0.5000000000000000
  0.5000000000000000  0.5000000000000000  0.0000000000000000
 
  0.00000000E+00  0.00000000E+00  0.00000000E+00
  0.00000000E+00  0.00000000E+00  0.00000000E+00
  0.00000000E+00  0.00000000E+00  0.00000000E+00
  0.00000000E+00  0.00000000E+00  0.00000000E+00
