Bi1Cu1Yb1   [HEX,HEX,hP6] (STD_PRIM doi:
   1.00000000000000     
     2.3142074586104067   -4.0084285656349374    0.0000000000000000
     2.3142074586104067    4.0084285656349374   -0.0000000000000000
     0.0000000000000000    0.0000000000000000    8.2576557025000561
   2   2   2
Direct
  0.3333513605373020  0.6666486394626979  0.7500000000000000
  0.6666486394626979  0.3333513605373020  0.2500000000000000
  0.3333685655306883  0.6666314344693117  0.2500000000000000
  0.6666314344693117  0.3333685655306883  0.7500000000000000
 -0.0000000000000000  0.0000000000000000  0.0000000000000000
  0.0000000000000000 -0.0000000000000000  0.5000000000000000
 
  0.00000000E+00  0.00000000E+00  0.00000000E+00
  0.00000000E+00  0.00000000E+00  0.00000000E+00
  0.00000000E+00  0.00000000E+00  0.00000000E+00
  0.00000000E+00  0.00000000E+00  0.00000000E+00
  0.00000000E+00  0.00000000E+00  0.00000000E+00
  0.00000000E+00  0.00000000E+00  0.00000000E+00
