Si1Ti1Y1   [TET,TET,tP6] (STD_PRIM doi:1
   1.00000000000000     
     4.0567640408099734   -0.0000000000000000    0.0000000000000000
     0.0000000000000000    4.0567640408099734   -0.0000000000000000
     0.0000000000000000   -0.0000000000000000    7.7223776048532606
   2   2   2
Direct
  0.2500000000000000  0.2500000000000000  0.2427670987107765
  0.7500000000000000  0.7500000000000000  0.7572329012892235
  0.7500000000000000  0.2500000000000000 -0.0000000000000000
  0.2500000000000000  0.7500000000000000  0.0000000000000000
  0.2500000000000000  0.2500000000000000  0.6502402250990171
  0.7500000000000000  0.7500000000000000  0.3497597749009829
 
  0.00000000E+00  0.00000000E+00  0.00000000E+00
  0.00000000E+00  0.00000000E+00  0.00000000E+00
  0.00000000E+00  0.00000000E+00  0.00000000E+00
  0.00000000E+00  0.00000000E+00  0.00000000E+00
  0.00000000E+00  0.00000000E+00  0.00000000E+00
  0.00000000E+00  0.00000000E+00  0.00000000E+00
