In1Pd1Y1   [HEX,HEX,hP9] (STD_PRIM doi:1
   1.00000000000000     
     3.8449935458283515   -6.6599823427748035    0.0000000000000000
     3.8449935458283515    6.6599823427748035    0.0000000000000000
     0.0000000000000000    0.0000000000000000    3.8749886864893259
   3   3   3
Direct
  0.2562219363271184  0.9999804582961758  0.0000000000000000
  0.9999804582961758  0.2562219363271184  0.0000000000000000
  0.7437612872800858  0.7437612872800858  0.0000000000000000
  0.3333466762706991  0.6666733817793807  0.0000000000000000
  0.6666733817793807  0.3333466762706991  0.0000000000000000
  0.0000102508185953  0.0000102508185953  0.5000000000000000
  0.5891694047557481  0.0000254875315609  0.5000000000000000
  0.0000254875315609  0.5891694047557481  0.5000000000000000
  0.4108111169406429  0.4108111169406429  0.5000000000000000
 
  0.00000000E+00  0.00000000E+00  0.00000000E+00
  0.00000000E+00  0.00000000E+00  0.00000000E+00
  0.00000000E+00  0.00000000E+00  0.00000000E+00
  0.00000000E+00  0.00000000E+00  0.00000000E+00
  0.00000000E+00  0.00000000E+00  0.00000000E+00
  0.00000000E+00  0.00000000E+00  0.00000000E+00
  0.00000000E+00  0.00000000E+00  0.00000000E+00
  0.00000000E+00  0.00000000E+00  0.00000000E+00
  0.00000000E+00  0.00000000E+00  0.00000000E+00
