Li2O5Si2   [ORCC,ORCC,oS36] (STD_PRIM do
   1.00000000000000     
     2.9442959766444372   -7.4295291195287874   -0.0004800757681516
     2.9442959766444372    7.4295291195287874   -0.0004800757681516
    -0.0010657142050921    0.0000000000000000    4.8338949591604967
   4  10   4
Direct
  0.4082489976958059  0.2920777644825389  0.5942915190800366
  0.2920777644825389  0.4082489976958059  0.0942915190800366
  0.7139933013394714  0.5977463363077024  0.0940983455642274
  0.5977463363077024  0.7139933013394714  0.5940983455642275
  0.5036033325253888  0.0041307002178204  0.0357091191640151
  0.0041307002178204  0.5036033325253888  0.5357091191640150
  0.2349833503844051  0.9575335709418445  0.4288372587732825
  0.9575335709418445  0.2349833503844051  0.9288372587732825
  0.0488180115816537  0.7711815054240009  0.9287650085063992
  0.7711815054240009  0.0488180115816537  0.4287650085063992
  0.4040846396088744  0.2605365804680145  0.0018383634480342
  0.2605365804680145  0.4040846396088744  0.5018383634480340
  0.7457945914403675  0.6014711708402426  0.5017295979556313
  0.6014711708402426  0.7457945914403675  0.0017295979556315
  0.3072556465446738  0.0099286612496773  0.0939850485802544
  0.0099286612496773  0.3072556465446738  0.5939850485802545
  0.9968665352230652  0.6991453037244750  0.5937457389281293
  0.6991453037244750  0.9968665352230652  0.0937457389281291
 
  0.00000000E+00  0.00000000E+00  0.00000000E+00
  0.00000000E+00  0.00000000E+00  0.00000000E+00
  0.00000000E+00  0.00000000E+00  0.00000000E+00
  0.00000000E+00  0.00000000E+00  0.00000000E+00
  0.00000000E+00  0.00000000E+00  0.00000000E+00
  0.00000000E+00  0.00000000E+00  0.00000000E+00
  0.00000000E+00  0.00000000E+00  0.00000000E+00
  0.00000000E+00  0.00000000E+00  0.00000000E+00
  0.00000000E+00  0.00000000E+00  0.00000000E+00
  0.00000000E+00  0.00000000E+00  0.00000000E+00
  0.00000000E+00  0.00000000E+00  0.00000000E+00
  0.00000000E+00  0.00000000E+00  0.00000000E+00
  0.00000000E+00  0.00000000E+00  0.00000000E+00
  0.00000000E+00  0.00000000E+00  0.00000000E+00
  0.00000000E+00  0.00000000E+00  0.00000000E+00
  0.00000000E+00  0.00000000E+00  0.00000000E+00
  0.00000000E+00  0.00000000E+00  0.00000000E+00
  0.00000000E+00  0.00000000E+00  0.00000000E+00
