Hf1P1Ru1   [HEX,HEX,hP9] (STD_PRIM doi:1
   1.00000000000000     
     3.2204071274454549   -5.5779087657924684    0.0000000000000000
     3.2200220873636742    5.5776864627976037    0.0000000000000000
     0.0000000000000000    0.0000000000000000    3.7697376026107308
   3   3   3
Direct
  0.9999894584005118  0.4150227781430679  0.5000000000000000
  0.5849666802574438  0.5849772218569321  0.5000000000000000
  0.4150004868814045  0.0000000000000000  0.5000000000000000
  0.0000158055335747  0.0000000000000000  0.5000000000000000
  0.6666714680207145  0.3333503113233084  0.0000000000000000
  0.3333211566974061  0.6666496886766916  0.0000000000000000
  0.0000055492130223  0.7533894049307013  0.0000000000000000
  0.2466161442823210  0.2466105950692987  0.0000000000000000
  0.7534132507136012 -0.0000000000000000  0.0000000000000000
 
  0.00000000E+00  0.00000000E+00  0.00000000E+00
  0.00000000E+00  0.00000000E+00  0.00000000E+00
  0.00000000E+00  0.00000000E+00  0.00000000E+00
  0.00000000E+00  0.00000000E+00  0.00000000E+00
  0.00000000E+00  0.00000000E+00  0.00000000E+00
  0.00000000E+00  0.00000000E+00  0.00000000E+00
  0.00000000E+00  0.00000000E+00  0.00000000E+00
  0.00000000E+00  0.00000000E+00  0.00000000E+00
  0.00000000E+00  0.00000000E+00  0.00000000E+00
