Be22W1   [FCC,FCC,cF184] (STD_PRIM doi:1
   1.22474500000000     
    -0.0000000000000000    4.7267357849943332    4.7267357849943332
     4.7267357849943332    0.0000000000000000    4.7267357849943332
     4.7267357849943332    4.7267357849943332    0.0000000000000000
  44   2
Direct
  0.8750000000000000  0.3750000000000000  0.8750000000000000
  0.8750000000000000  0.8750000000000000  0.8750000000000000
  0.3750000000000000  0.8750000000000000  0.8750000000000000
  0.8750000000000000  0.8750000000000000  0.3750000000000000
  0.3750000000000000  0.8750000000000000  0.3750000000000000
  0.3750000000000000  0.3750000000000000  0.3750000000000000
  0.8750000000000000  0.3750000000000000  0.3750000000000000
  0.3750000000000000  0.3750000000000000  0.8750000000000000
  0.8653101277326486  0.1346898722673514  0.1346898722673514
  0.1346898722673514  0.8653101277326486  0.8653101277326486
  0.1346898722673514  0.1346898722673514  0.8653101277326486
  0.8653101277326486  0.8653101277326486  0.1346898722673514
  0.8653101277326486  0.1346898722673514  0.8653101277326486
  0.1346898722673514  0.8653101277326486  0.1346898722673514
  0.8846898722673514  0.8846898722673514  0.6153101277326486
  0.6153101277326486  0.6153101277326486  0.8846898722673514
  0.6153101277326486  0.8846898722673514  0.8846898722673514
  0.8846898722673514  0.6153101277326486  0.6153101277326486
  0.8846898722673514  0.6153101277326486  0.8846898722673514
  0.6153101277326486  0.8846898722673514  0.6153101277326486
  0.6990912094753066  0.4313814728927234  0.6990912094753066
  0.6990912094753066  0.1704361081566706  0.6990912094753066
  0.4313814728927234  0.6990912094753066  0.1704361081566706
  0.1704361081566706  0.6990912094753066  0.4313814728927234
  0.6990912094753066  0.4313814728927234  0.1704361081566706
  0.6990912094753066  0.1704361081566706  0.4313814728927234
  0.1704361081566706  0.6990912094753066  0.6990912094753066
  0.4313814728927234  0.6990912094753066  0.6990912094753066
  0.1704361081566706  0.4313814728927234  0.6990912094753066
  0.4313814728927234  0.1704361081566706  0.6990912094753066
  0.6990912094753066  0.6990912094753066  0.4313814728927234
  0.6990912094753066  0.6990912094753066  0.1704361081566706
  0.0509087905246934  0.5795638918433295  0.0509087905246934
  0.0509087905246934  0.3186185271072766  0.0509087905246934
  0.3186185271072766  0.0509087905246934  0.5795638918433295
  0.5795638918433295  0.0509087905246934  0.3186185271072766
  0.0509087905246934  0.0509087905246934  0.5795638918433295
  0.0509087905246934  0.0509087905246934  0.3186185271072766
  0.5795638918433295  0.3186185271072766  0.0509087905246934
  0.3186185271072766  0.5795638918433295  0.0509087905246934
  0.5795638918433295  0.0509087905246934  0.0509087905246934
  0.3186185271072766  0.0509087905246934  0.0509087905246934
  0.0509087905246934  0.5795638918433295  0.3186185271072766
  0.0509087905246934  0.3186185271072766  0.5795638918433295
  0.5000000000000000  0.5000000000000000  0.5000000000000000
  0.2500000000000000  0.2500000000000000  0.2500000000000000
 
  0.00000000E+00  0.00000000E+00  0.00000000E+00
  0.00000000E+00  0.00000000E+00  0.00000000E+00
  0.00000000E+00  0.00000000E+00  0.00000000E+00
  0.00000000E+00  0.00000000E+00  0.00000000E+00
  0.00000000E+00  0.00000000E+00  0.00000000E+00
  0.00000000E+00  0.00000000E+00  0.00000000E+00
  0.00000000E+00  0.00000000E+00  0.00000000E+00
  0.00000000E+00  0.00000000E+00  0.00000000E+00
  0.00000000E+00  0.00000000E+00  0.00000000E+00
  0.00000000E+00  0.00000000E+00  0.00000000E+00
  0.00000000E+00  0.00000000E+00  0.00000000E+00
  0.00000000E+00  0.00000000E+00  0.00000000E+00
  0.00000000E+00  0.00000000E+00  0.00000000E+00
  0.00000000E+00  0.00000000E+00  0.00000000E+00
  0.00000000E+00  0.00000000E+00  0.00000000E+00
  0.00000000E+00  0.00000000E+00  0.00000000E+00
  0.00000000E+00  0.00000000E+00  0.00000000E+00
  0.00000000E+00  0.00000000E+00  0.00000000E+00
  0.00000000E+00  0.00000000E+00  0.00000000E+00
  0.00000000E+00  0.00000000E+00  0.00000000E+00
  0.00000000E+00  0.00000000E+00  0.00000000E+00
  0.00000000E+00  0.00000000E+00  0.00000000E+00
  0.00000000E+00  0.00000000E+00  0.00000000E+00
  0.00000000E+00  0.00000000E+00  0.00000000E+00
  0.00000000E+00  0.00000000E+00  0.00000000E+00
  0.00000000E+00  0.00000000E+00  0.00000000E+00
  0.00000000E+00  0.00000000E+00  0.00000000E+00
  0.00000000E+00  0.00000000E+00  0.00000000E+00
  0.00000000E+00  0.00000000E+00  0.00000000E+00
  0.00000000E+00  0.00000000E+00  0.00000000E+00
  0.00000000E+00  0.00000000E+00  0.00000000E+00
  0.00000000E+00  0.00000000E+00  0.00000000E+00
  0.00000000E+00  0.00000000E+00  0.00000000E+00
  0.00000000E+00  0.00000000E+00  0.00000000E+00
  0.00000000E+00  0.00000000E+00  0.00000000E+00
  0.00000000E+00  0.00000000E+00  0.00000000E+00
  0.00000000E+00  0.00000000E+00  0.00000000E+00
  0.00000000E+00  0.00000000E+00  0.00000000E+00
  0.00000000E+00  0.00000000E+00  0.00000000E+00
  0.00000000E+00  0.00000000E+00  0.00000000E+00
  0.00000000E+00  0.00000000E+00  0.00000000E+00
  0.00000000E+00  0.00000000E+00  0.00000000E+00
  0.00000000E+00  0.00000000E+00  0.00000000E+00
  0.00000000E+00  0.00000000E+00  0.00000000E+00
  0.00000000E+00  0.00000000E+00  0.00000000E+00
  0.00000000E+00  0.00000000E+00  0.00000000E+00
