Rb3Sb1Se3   [CUB,CUB,cP28] (STD_PRIM doi
   1.00000000000000     
    10.3648225032172956   -0.0000000000000000    0.0000000000000000
    -0.0000000000000000   10.3648225032172956   -0.0000000000000000
     0.0000000000000000    0.0000000000000000   10.3648225032172956
  12   4  12
Direct
  0.3161134453724604  0.3161134453724604  0.3161134453724604
  0.1838865546275395  0.6838865546275396  0.8161134453724604
  0.6838865546275396  0.8161134453724604  0.1838865546275395
  0.8161134453724604  0.1838865546275395  0.6838865546275396
  0.5750542418523696  0.5750542418523696  0.5750542418523696
  0.9249457581476304  0.4249457581476305  0.0750542418523696
  0.4249457581476305  0.0750542418523696  0.9249457581476304
  0.0750542418523696  0.9249457581476304  0.4249457581476305
  0.8116307760492214  0.8116307760492214  0.8116307760492214
  0.6883692239507786  0.1883692239507786  0.3116307760492215
  0.1883692239507786  0.3116307760492215  0.6883692239507786
  0.3116307760492215  0.6883692239507786  0.1883692239507786
  0.0268063116880367  0.0268063116880367  0.0268063116880367
  0.4731936883119633  0.9731936883119633  0.5268063116880367
  0.9731936883119633  0.5268063116880367  0.4731936883119633
  0.5268063116880367  0.4731936883119633  0.9731936883119633
  0.2119839694272090  0.6003259453140962  0.4951934250817859
  0.2880160305727911  0.3996740546859038  0.9951934250817858
  0.7880160305727910  0.1003259453140962  0.0048065749182142
  0.7119839694272090  0.8996740546859038  0.5048065749182142
  0.4951934250817859  0.2119839694272090  0.6003259453140962
  0.9951934250817858  0.2880160305727911  0.3996740546859038
  0.0048065749182142  0.7880160305727910  0.1003259453140962
  0.5048065749182142  0.7119839694272090  0.8996740546859038
  0.6003259453140962  0.4951934250817859  0.2119839694272090
  0.3996740546859038  0.9951934250817858  0.2880160305727911
  0.1003259453140962  0.0048065749182142  0.7880160305727910
  0.8996740546859038  0.5048065749182142  0.7119839694272090
 
  0.00000000E+00  0.00000000E+00  0.00000000E+00
  0.00000000E+00  0.00000000E+00  0.00000000E+00
  0.00000000E+00  0.00000000E+00  0.00000000E+00
  0.00000000E+00  0.00000000E+00  0.00000000E+00
  0.00000000E+00  0.00000000E+00  0.00000000E+00
  0.00000000E+00  0.00000000E+00  0.00000000E+00
  0.00000000E+00  0.00000000E+00  0.00000000E+00
  0.00000000E+00  0.00000000E+00  0.00000000E+00
  0.00000000E+00  0.00000000E+00  0.00000000E+00
  0.00000000E+00  0.00000000E+00  0.00000000E+00
  0.00000000E+00  0.00000000E+00  0.00000000E+00
  0.00000000E+00  0.00000000E+00  0.00000000E+00
  0.00000000E+00  0.00000000E+00  0.00000000E+00
  0.00000000E+00  0.00000000E+00  0.00000000E+00
  0.00000000E+00  0.00000000E+00  0.00000000E+00
  0.00000000E+00  0.00000000E+00  0.00000000E+00
  0.00000000E+00  0.00000000E+00  0.00000000E+00
  0.00000000E+00  0.00000000E+00  0.00000000E+00
  0.00000000E+00  0.00000000E+00  0.00000000E+00
  0.00000000E+00  0.00000000E+00  0.00000000E+00
  0.00000000E+00  0.00000000E+00  0.00000000E+00
  0.00000000E+00  0.00000000E+00  0.00000000E+00
  0.00000000E+00  0.00000000E+00  0.00000000E+00
  0.00000000E+00  0.00000000E+00  0.00000000E+00
  0.00000000E+00  0.00000000E+00  0.00000000E+00
  0.00000000E+00  0.00000000E+00  0.00000000E+00
  0.00000000E+00  0.00000000E+00  0.00000000E+00
  0.00000000E+00  0.00000000E+00  0.00000000E+00
