Bi1Ni1Se1   [CUB,CUB,cP12] (STD_PRIM doi
   1.00000000000000     
     6.2486669034722340    0.0000000000000000   -0.0000000000000000
    -0.0000000000000000    6.2486669034722340   -0.0000000000000000
     0.0000000000000000   -0.0000000000000000    6.2486669034722340
   4   4   4
Direct
  0.1145105634676526  0.1145105634676526  0.1145105634676526
  0.3854894365323474  0.8854894365323475  0.6145105634676525
  0.8854894365323475  0.6145105634676525  0.3854894365323474
  0.6145105634676525  0.3854894365323474  0.8854894365323475
  0.2699746373438766  0.7300253626561233  0.2300253626561235
  0.2300253626561235  0.2699746373438766  0.7300253626561233
  0.7300253626561233  0.2300253626561235  0.2699746373438766
  0.7699746373438767  0.7699746373438767  0.7699746373438767
  0.6240158433764326  0.8759841566235674  0.1240158433764324
  0.8759841566235674  0.1240158433764324  0.6240158433764326
  0.3759841566235677  0.3759841566235677  0.3759841566235677
  0.1240158433764324  0.6240158433764326  0.8759841566235674
 
  0.00000000E+00  0.00000000E+00  0.00000000E+00
  0.00000000E+00  0.00000000E+00  0.00000000E+00
  0.00000000E+00  0.00000000E+00  0.00000000E+00
  0.00000000E+00  0.00000000E+00  0.00000000E+00
  0.00000000E+00  0.00000000E+00  0.00000000E+00
  0.00000000E+00  0.00000000E+00  0.00000000E+00
  0.00000000E+00  0.00000000E+00  0.00000000E+00
  0.00000000E+00  0.00000000E+00  0.00000000E+00
  0.00000000E+00  0.00000000E+00  0.00000000E+00
  0.00000000E+00  0.00000000E+00  0.00000000E+00
  0.00000000E+00  0.00000000E+00  0.00000000E+00
  0.00000000E+00  0.00000000E+00  0.00000000E+00
