Al16Ni7Sc6   [FCC,FCC,cF116] (STD_PRIM d
   1.22474500000000     
    -0.0000000000000000    4.9630825344532310    4.9630825344532310
     4.9630825344532310    0.0000000000000000    4.9630825344532310
     4.9630825344532310    4.9630825344532310    0.0000000000000000
  16   7   6
Direct
  0.1192029380848086  0.6423911857455741  0.1192029380848086
  0.1192029380848086  0.1192029380848086  0.1192029380848086
  0.1192029380848086  0.1192029380848086  0.6423911857455741
  0.6423911857455741  0.1192029380848086  0.1192029380848086
  0.8807970619151914  0.8807970619151914  0.8807970619151914
  0.8807970619151914  0.3576088142544260  0.8807970619151914
  0.8807970619151914  0.8807970619151914  0.3576088142544260
  0.3576088142544260  0.8807970619151914  0.8807970619151914
  0.3325713183339577  0.0022860449981269  0.3325713183339577
  0.3325713183339577  0.3325713183339577  0.3325713183339577
  0.3325713183339577  0.3325713183339577  0.0022860449981269
  0.0022860449981269  0.3325713183339577  0.3325713183339577
  0.6674286816660423  0.6674286816660423  0.6674286816660423
  0.6674286816660423  0.9977139550018731  0.6674286816660423
  0.6674286816660423  0.6674286816660423  0.9977139550018731
  0.9977139550018731  0.6674286816660423  0.6674286816660423
  0.0000000000000000 -0.0000000000000000  0.0000000000000000
  0.5000000000000000  0.5000000000000000 -0.0000000000000000
  0.0000000000000000  0.0000000000000000  0.5000000000000000
  0.0000000000000000  0.5000000000000000  0.5000000000000000
  0.5000000000000000  0.0000000000000000  0.0000000000000000
  0.0000000000000000  0.5000000000000000 -0.0000000000000000
  0.5000000000000000 -0.0000000000000000  0.5000000000000000
  0.6963136666718762  0.6963136666718762  0.3036863333281238
  0.3036863333281238  0.3036863333281238  0.6963136666718762
  0.3036863333281238  0.6963136666718762  0.6963136666718762
  0.6963136666718762  0.3036863333281238  0.3036863333281238
  0.3036863333281238  0.6963136666718762  0.3036863333281238
  0.6963136666718762  0.3036863333281238  0.6963136666718762
 
  0.00000000E+00  0.00000000E+00  0.00000000E+00
  0.00000000E+00  0.00000000E+00  0.00000000E+00
  0.00000000E+00  0.00000000E+00  0.00000000E+00
  0.00000000E+00  0.00000000E+00  0.00000000E+00
  0.00000000E+00  0.00000000E+00  0.00000000E+00
  0.00000000E+00  0.00000000E+00  0.00000000E+00
  0.00000000E+00  0.00000000E+00  0.00000000E+00
  0.00000000E+00  0.00000000E+00  0.00000000E+00
  0.00000000E+00  0.00000000E+00  0.00000000E+00
  0.00000000E+00  0.00000000E+00  0.00000000E+00
  0.00000000E+00  0.00000000E+00  0.00000000E+00
  0.00000000E+00  0.00000000E+00  0.00000000E+00
  0.00000000E+00  0.00000000E+00  0.00000000E+00
  0.00000000E+00  0.00000000E+00  0.00000000E+00
  0.00000000E+00  0.00000000E+00  0.00000000E+00
  0.00000000E+00  0.00000000E+00  0.00000000E+00
  0.00000000E+00  0.00000000E+00  0.00000000E+00
  0.00000000E+00  0.00000000E+00  0.00000000E+00
  0.00000000E+00  0.00000000E+00  0.00000000E+00
  0.00000000E+00  0.00000000E+00  0.00000000E+00
  0.00000000E+00  0.00000000E+00  0.00000000E+00
  0.00000000E+00  0.00000000E+00  0.00000000E+00
  0.00000000E+00  0.00000000E+00  0.00000000E+00
  0.00000000E+00  0.00000000E+00  0.00000000E+00
  0.00000000E+00  0.00000000E+00  0.00000000E+00
  0.00000000E+00  0.00000000E+00  0.00000000E+00
  0.00000000E+00  0.00000000E+00  0.00000000E+00
  0.00000000E+00  0.00000000E+00  0.00000000E+00
  0.00000000E+00  0.00000000E+00  0.00000000E+00
