K1P1Zn1   [HEX,HEX,hP6] (STD_PRIM doi:10
   1.00000000000000     
     2.0434483018954803   -3.5397217209511926    0.0000000000000000
     2.0434483018954803    3.5397217209511926   -0.0000000000000000
     0.0000000000000000    0.0000000000000000   10.2421292141170284
   2   2   2
Direct
 -0.0000000000000000 -0.0000000000000000  0.0000000000000000
  0.0000000000000000  0.0000000000000000  0.5000000000000000
  0.3333163827602169  0.6666836172397831  0.2500000000000000
  0.6666836172397831  0.3333163827602169  0.7500000000000000
  0.3333274690284588  0.6666725309715412  0.7500000000000000
  0.6666725309715412  0.3333274690284588  0.2500000000000000
 
  0.00000000E+00  0.00000000E+00  0.00000000E+00
  0.00000000E+00  0.00000000E+00  0.00000000E+00
  0.00000000E+00  0.00000000E+00  0.00000000E+00
  0.00000000E+00  0.00000000E+00  0.00000000E+00
  0.00000000E+00  0.00000000E+00  0.00000000E+00
  0.00000000E+00  0.00000000E+00  0.00000000E+00
