Co4Ge13Yb3   [CUB,CUB,cP40] (STD_PRIM do
   1.00000000000000     
     8.7619410498966985    0.0000000000000000    0.0000000000000000
    -0.0000000000000000    8.7619410498966985   -0.0000000000000000
     0.0000000000000000    0.0000000000000000    8.7619410498966985
   8  26   6
Direct
  0.2500000000000000  0.2500000000000000  0.2500000000000000
  0.7500000000000000  0.7500000000000000  0.2500000000000000
  0.7500000000000000  0.2500000000000000  0.7500000000000000
  0.2500000000000000  0.7500000000000000  0.7500000000000000
  0.7500000000000000  0.7500000000000000  0.7500000000000000
  0.2500000000000000  0.2500000000000000  0.7500000000000000
  0.2500000000000000  0.7500000000000000  0.2500000000000000
  0.7500000000000000  0.2500000000000000  0.2500000000000000
  0.0000000000000000  0.0000000000000000  0.0000000000000000
  0.5000000000000000  0.5000000000000000  0.5000000000000000
 -0.0000000000000000  0.1539967732247242  0.2998095695393257
 -0.0000000000000000  0.8460032267752758  0.2998095695393257
  0.0000000000000000  0.1539967732247242  0.7001904304606743
  0.0000000000000000  0.8460032267752758  0.7001904304606743
  0.2998095695393257 -0.0000000000000000  0.1539967732247242
  0.2998095695393257  0.0000000000000000  0.8460032267752758
  0.7001904304606743 -0.0000000000000000  0.1539967732247242
  0.7001904304606743  0.0000000000000000  0.8460032267752758
  0.1539967732247242  0.2998095695393257  0.0000000000000000
  0.8460032267752758  0.2998095695393257  0.0000000000000000
  0.1539967732247242  0.7001904304606743 -0.0000000000000000
  0.8460032267752758  0.7001904304606743 -0.0000000000000000
  0.6539967732247242  0.5000000000000000  0.2001904304606744
  0.3460032267752758  0.5000000000000000  0.2001904304606744
  0.6539967732247242  0.5000000000000000  0.7998095695393257
  0.3460032267752758  0.5000000000000000  0.7998095695393257
  0.5000000000000000  0.7998095695393257  0.3460032267752758
  0.5000000000000000  0.7998095695393257  0.6539967732247242
  0.5000000000000000  0.2001904304606744  0.3460032267752758
  0.5000000000000000  0.2001904304606744  0.6539967732247242
  0.7998095695393257  0.6539967732247242  0.5000000000000000
  0.7998095695393257  0.3460032267752758  0.5000000000000000
  0.2001904304606744  0.6539967732247242  0.5000000000000000
  0.2001904304606744  0.3460032267752758  0.5000000000000000
  0.2500000000000000  0.0000000000000000  0.5000000000000000
  0.7500000000000000 -0.0000000000000000  0.5000000000000000
  0.5000000000000000  0.2500000000000000 -0.0000000000000000
  0.5000000000000000  0.7500000000000000  0.0000000000000000
  0.0000000000000000  0.5000000000000000  0.2500000000000000
 -0.0000000000000000  0.5000000000000000  0.7500000000000000
 
  0.00000000E+00  0.00000000E+00  0.00000000E+00
  0.00000000E+00  0.00000000E+00  0.00000000E+00
  0.00000000E+00  0.00000000E+00  0.00000000E+00
  0.00000000E+00  0.00000000E+00  0.00000000E+00
  0.00000000E+00  0.00000000E+00  0.00000000E+00
  0.00000000E+00  0.00000000E+00  0.00000000E+00
  0.00000000E+00  0.00000000E+00  0.00000000E+00
  0.00000000E+00  0.00000000E+00  0.00000000E+00
  0.00000000E+00  0.00000000E+00  0.00000000E+00
  0.00000000E+00  0.00000000E+00  0.00000000E+00
  0.00000000E+00  0.00000000E+00  0.00000000E+00
  0.00000000E+00  0.00000000E+00  0.00000000E+00
  0.00000000E+00  0.00000000E+00  0.00000000E+00
  0.00000000E+00  0.00000000E+00  0.00000000E+00
  0.00000000E+00  0.00000000E+00  0.00000000E+00
  0.00000000E+00  0.00000000E+00  0.00000000E+00
  0.00000000E+00  0.00000000E+00  0.00000000E+00
  0.00000000E+00  0.00000000E+00  0.00000000E+00
  0.00000000E+00  0.00000000E+00  0.00000000E+00
  0.00000000E+00  0.00000000E+00  0.00000000E+00
  0.00000000E+00  0.00000000E+00  0.00000000E+00
  0.00000000E+00  0.00000000E+00  0.00000000E+00
  0.00000000E+00  0.00000000E+00  0.00000000E+00
  0.00000000E+00  0.00000000E+00  0.00000000E+00
  0.00000000E+00  0.00000000E+00  0.00000000E+00
  0.00000000E+00  0.00000000E+00  0.00000000E+00
  0.00000000E+00  0.00000000E+00  0.00000000E+00
  0.00000000E+00  0.00000000E+00  0.00000000E+00
  0.00000000E+00  0.00000000E+00  0.00000000E+00
  0.00000000E+00  0.00000000E+00  0.00000000E+00
  0.00000000E+00  0.00000000E+00  0.00000000E+00
  0.00000000E+00  0.00000000E+00  0.00000000E+00
  0.00000000E+00  0.00000000E+00  0.00000000E+00
  0.00000000E+00  0.00000000E+00  0.00000000E+00
  0.00000000E+00  0.00000000E+00  0.00000000E+00
  0.00000000E+00  0.00000000E+00  0.00000000E+00
  0.00000000E+00  0.00000000E+00  0.00000000E+00
  0.00000000E+00  0.00000000E+00  0.00000000E+00
  0.00000000E+00  0.00000000E+00  0.00000000E+00
  0.00000000E+00  0.00000000E+00  0.00000000E+00
