O7Pb2Sb2   [FCC,FCC,cF88] (STD_PRIM doi:
   1.22474500000000     
    -0.0000000000000000    4.4309957085742449    4.4309957085742449
     4.4309957085742449   -0.0000000000000000    4.4309957085742449
     4.4309957085742449    4.4309957085742449   -0.0000000000000000
  14   4   4
Direct
  0.5000000000000000  0.5000000000000000  0.5000000000000000
  0.7500000000000000  0.7500000000000000  0.7500000000000000
  0.1919994484482036  0.1919994484482036  0.8080005515517964
  0.8080005515517964  0.8080005515517964  0.1919994484482036
  0.1919994484482036  0.8080005515517964  0.8080005515517964
  0.8080005515517964  0.1919994484482036  0.1919994484482036
  0.8080005515517964  0.1919994484482036  0.8080005515517964
  0.1919994484482036  0.8080005515517964  0.1919994484482036
  0.4419994484482036  0.0580005515517964  0.0580005515517964
  0.0580005515517964  0.4419994484482036  0.4419994484482036
  0.4419994484482036  0.4419994484482036  0.0580005515517964
  0.0580005515517964  0.0580005515517964  0.4419994484482036
  0.4419994484482036  0.0580005515517964  0.4419994484482036
  0.0580005515517964  0.4419994484482036  0.0580005515517964
  0.6250000000000000  0.6250000000000000  0.1250000000000000
  0.1250000000000000  0.6250000000000000  0.6250000000000000
  0.6250000000000000  0.1250000000000000  0.6250000000000000
  0.6250000000000000  0.6250000000000000  0.6250000000000000
  0.1250000000000000  0.1250000000000000  0.6250000000000000
  0.6250000000000000  0.1250000000000000  0.1250000000000000
  0.1250000000000000  0.6250000000000000  0.1250000000000000
  0.1250000000000000  0.1250000000000000  0.1250000000000000
 
  0.00000000E+00  0.00000000E+00  0.00000000E+00
  0.00000000E+00  0.00000000E+00  0.00000000E+00
  0.00000000E+00  0.00000000E+00  0.00000000E+00
  0.00000000E+00  0.00000000E+00  0.00000000E+00
  0.00000000E+00  0.00000000E+00  0.00000000E+00
  0.00000000E+00  0.00000000E+00  0.00000000E+00
  0.00000000E+00  0.00000000E+00  0.00000000E+00
  0.00000000E+00  0.00000000E+00  0.00000000E+00
  0.00000000E+00  0.00000000E+00  0.00000000E+00
  0.00000000E+00  0.00000000E+00  0.00000000E+00
  0.00000000E+00  0.00000000E+00  0.00000000E+00
  0.00000000E+00  0.00000000E+00  0.00000000E+00
  0.00000000E+00  0.00000000E+00  0.00000000E+00
  0.00000000E+00  0.00000000E+00  0.00000000E+00
  0.00000000E+00  0.00000000E+00  0.00000000E+00
  0.00000000E+00  0.00000000E+00  0.00000000E+00
  0.00000000E+00  0.00000000E+00  0.00000000E+00
  0.00000000E+00  0.00000000E+00  0.00000000E+00
  0.00000000E+00  0.00000000E+00  0.00000000E+00
  0.00000000E+00  0.00000000E+00  0.00000000E+00
  0.00000000E+00  0.00000000E+00  0.00000000E+00
  0.00000000E+00  0.00000000E+00  0.00000000E+00
