Li2O2   [HEX,HEX,hP8] (STD_PRIM doi:10.1
   1.01639600000000     
     1.5644316816816188   -2.7096852183402396    0.0000000000000000
     1.5644403945010157    2.7096902486888648    0.0000000000000000
     0.0000000000000000    0.0000000000000000    7.5763945917465252
   4   4
Direct
  0.0000000000000000  0.0000000000000000  0.0000000000000000
  0.0000000000000000 -0.0000000000000000  0.5000000000000000
  0.3333216379435148  0.6666608189717680  0.2500000000000000
  0.6666783620564852  0.3333391810282320  0.7500000000000000
  0.3333462665032264  0.6666731332515954  0.6492976219983665
  0.6666537334967737  0.3333268667484046  0.1492976219983665
  0.6666537334967737  0.3333268667484046  0.3507023780016335
  0.3333462665032264  0.6666731332515954  0.8507023780016335
 
  0.00000000E+00  0.00000000E+00  0.00000000E+00
  0.00000000E+00  0.00000000E+00  0.00000000E+00
  0.00000000E+00  0.00000000E+00  0.00000000E+00
  0.00000000E+00  0.00000000E+00  0.00000000E+00
  0.00000000E+00  0.00000000E+00  0.00000000E+00
  0.00000000E+00  0.00000000E+00  0.00000000E+00
  0.00000000E+00  0.00000000E+00  0.00000000E+00
  0.00000000E+00  0.00000000E+00  0.00000000E+00
