O5Ti5   [MCLC,MCLC1,mS20] (STD_PRIM doi:
   1.01639600000000     
     2.0514495717525469    4.5953388918278169    0.0000630355461099
    -2.0514495717525469    4.5953388918278169    0.0000630355461099
     0.0000000000000000    1.7236988795862611    5.5055268670686504
   5   5
Direct
  0.8282829517824860  0.8282829517824860  0.3446360855099178
  0.1717170482175140  0.1717170482175140  0.6553639144900822
  0.8268327804973373  0.8268327804973373  0.8314020939918659
  0.1731672195026626  0.1731672195026626  0.1685979060081340
  0.5000000000000000  0.5000000000000000  0.0000000000000000
  0.0000000000000000  0.0000000000000000  0.5000000000000000
  0.6616389878123150  0.6616389878123150  0.1742331439295169
  0.3383610121876851  0.3383610121876851  0.8257668560704832
  0.6482788342820975  0.6482788342820975  0.6745076665015007
  0.3517211657179167  0.3517211657179167  0.3254923334984993
 
  0.00000000E+00  0.00000000E+00  0.00000000E+00
  0.00000000E+00  0.00000000E+00  0.00000000E+00
  0.00000000E+00  0.00000000E+00  0.00000000E+00
  0.00000000E+00  0.00000000E+00  0.00000000E+00
  0.00000000E+00  0.00000000E+00  0.00000000E+00
  0.00000000E+00  0.00000000E+00  0.00000000E+00
  0.00000000E+00  0.00000000E+00  0.00000000E+00
  0.00000000E+00  0.00000000E+00  0.00000000E+00
  0.00000000E+00  0.00000000E+00  0.00000000E+00
  0.00000000E+00  0.00000000E+00  0.00000000E+00
