Cd2Nb2O7   [FCC,FCC,cF88] (STD_PRIM doi:
   1.22474500000000     
     0.0000000000000000    4.1727561575681875    4.1727561575681875
     4.1727561575681875    0.0000000000000000    4.1727561575681875
     4.1727561575681875    4.1727561575681875    0.0000000000000000
   4   4  14
Direct
  0.8750000000000000  0.8750000000000000  0.3750000000000000
  0.3750000000000000  0.8750000000000000  0.8750000000000000
  0.8750000000000000  0.8750000000000000  0.8750000000000000
  0.8750000000000000  0.3750000000000000  0.8750000000000000
  0.3750000000000000  0.3750000000000000  0.8750000000000000
  0.8750000000000000  0.3750000000000000  0.3750000000000000
  0.3750000000000000  0.3750000000000000  0.3750000000000000
  0.3750000000000000  0.8750000000000000  0.3750000000000000
  0.5000000000000000  0.5000000000000000  0.5000000000000000
  0.2500000000000000  0.2500000000000000  0.2500000000000000
  0.7326673760595739  0.2673326239404261  0.2673326239404261
  0.2673326239404261  0.7326673760595739  0.7326673760595739
  0.7326673760595739  0.7326673760595739  0.2673326239404261
  0.2673326239404261  0.2673326239404261  0.7326673760595739
  0.2673326239404261  0.7326673760595739  0.2673326239404261
  0.7326673760595739  0.2673326239404261  0.7326673760595739
  0.4826673760595739  0.4826673760595739  0.0173326239404261
  0.0173326239404261  0.0173326239404261  0.4826673760595739
  0.4826673760595739  0.0173326239404261  0.0173326239404261
  0.0173326239404261  0.4826673760595739  0.4826673760595739
  0.4826673760595739  0.0173326239404261  0.4826673760595739
  0.0173326239404261  0.4826673760595739  0.0173326239404261
 
  0.00000000E+00  0.00000000E+00  0.00000000E+00
  0.00000000E+00  0.00000000E+00  0.00000000E+00
  0.00000000E+00  0.00000000E+00  0.00000000E+00
  0.00000000E+00  0.00000000E+00  0.00000000E+00
  0.00000000E+00  0.00000000E+00  0.00000000E+00
  0.00000000E+00  0.00000000E+00  0.00000000E+00
  0.00000000E+00  0.00000000E+00  0.00000000E+00
  0.00000000E+00  0.00000000E+00  0.00000000E+00
  0.00000000E+00  0.00000000E+00  0.00000000E+00
  0.00000000E+00  0.00000000E+00  0.00000000E+00
  0.00000000E+00  0.00000000E+00  0.00000000E+00
  0.00000000E+00  0.00000000E+00  0.00000000E+00
  0.00000000E+00  0.00000000E+00  0.00000000E+00
  0.00000000E+00  0.00000000E+00  0.00000000E+00
  0.00000000E+00  0.00000000E+00  0.00000000E+00
  0.00000000E+00  0.00000000E+00  0.00000000E+00
  0.00000000E+00  0.00000000E+00  0.00000000E+00
  0.00000000E+00  0.00000000E+00  0.00000000E+00
  0.00000000E+00  0.00000000E+00  0.00000000E+00
  0.00000000E+00  0.00000000E+00  0.00000000E+00
  0.00000000E+00  0.00000000E+00  0.00000000E+00
  0.00000000E+00  0.00000000E+00  0.00000000E+00
