N2Os1   [ORC,ORC,oP6] (STD_PRIM doi:10.1
   1.00000000000000     
     2.7033250427523732    0.0000000000000000    0.0000000000000000
     0.0000000000000000    4.1473329882505254    0.0000000000000000
     0.0000000000000000    0.0000000000000000    4.9653681693537637
   4   2
Direct
  0.0000000000000000  0.1249635554094478  0.5942342968698917
  0.0000000000000000  0.8750364445905522  0.4057657031301082
  0.5000000000000000  0.3750364445905522  0.0942342968698918
  0.5000000000000000  0.6249635554094478  0.9057657031301083
  0.0000000000000000  0.0000000000000000  0.0000000000000000
  0.5000000000000000  0.5000000000000000  0.5000000000000000
 
  0.00000000E+00  0.00000000E+00  0.00000000E+00
  0.00000000E+00  0.00000000E+00  0.00000000E+00
  0.00000000E+00  0.00000000E+00  0.00000000E+00
  0.00000000E+00  0.00000000E+00  0.00000000E+00
  0.00000000E+00  0.00000000E+00  0.00000000E+00
  0.00000000E+00  0.00000000E+00  0.00000000E+00
