Al2B1Re3   [FCC,FCC,cF96] (STD_PRIM doi:
   1.22474500000000     
     0.0000000000000000    4.3985459190438698    4.3985459190438698
     4.3985459190438698   -0.0000000000000000    4.3985459190438698
     4.3985459190438698    4.3985459190438698   -0.0000000000000000
   8   4  12
Direct
  0.4911949463337424  0.8362683512220882  0.8362683512220882
  0.8362683512220882  0.8362683512220882  0.8362683512220882
  0.8362683512220882  0.4911949463337424  0.8362683512220882
  0.8362683512220882  0.8362683512220882  0.4911949463337424
  0.4137316487779117  0.4137316487779117  0.4137316487779117
  0.7588050536662576  0.4137316487779117  0.4137316487779117
  0.4137316487779117  0.7588050536662576  0.4137316487779117
  0.4137316487779117  0.4137316487779117  0.7588050536662576
  0.1250000000000000  0.6250000000000000  0.6250000000000000
  0.6250000000000000  0.6250000000000000  0.6250000000000000
  0.6250000000000000  0.1250000000000000  0.6250000000000000
  0.6250000000000000  0.6250000000000000  0.1250000000000000
  0.8075608091148632  0.1924391908851368  0.8075608091148632
  0.1924391908851368  0.8075608091148632  0.1924391908851368
  0.8075608091148632  0.8075608091148632  0.1924391908851368
  0.1924391908851368  0.1924391908851368  0.8075608091148632
  0.8075608091148632  0.1924391908851368  0.1924391908851368
  0.1924391908851368  0.8075608091148632  0.8075608091148632
  0.0575608091148632  0.0575608091148632  0.4424391908851367
  0.4424391908851367  0.4424391908851367  0.0575608091148632
  0.0575608091148632  0.4424391908851367  0.0575608091148632
  0.4424391908851367  0.0575608091148632  0.4424391908851367
  0.4424391908851367  0.0575608091148632  0.0575608091148632
  0.0575608091148632  0.4424391908851367  0.4424391908851367
 
  0.00000000E+00  0.00000000E+00  0.00000000E+00
  0.00000000E+00  0.00000000E+00  0.00000000E+00
  0.00000000E+00  0.00000000E+00  0.00000000E+00
  0.00000000E+00  0.00000000E+00  0.00000000E+00
  0.00000000E+00  0.00000000E+00  0.00000000E+00
  0.00000000E+00  0.00000000E+00  0.00000000E+00
  0.00000000E+00  0.00000000E+00  0.00000000E+00
  0.00000000E+00  0.00000000E+00  0.00000000E+00
  0.00000000E+00  0.00000000E+00  0.00000000E+00
  0.00000000E+00  0.00000000E+00  0.00000000E+00
  0.00000000E+00  0.00000000E+00  0.00000000E+00
  0.00000000E+00  0.00000000E+00  0.00000000E+00
  0.00000000E+00  0.00000000E+00  0.00000000E+00
  0.00000000E+00  0.00000000E+00  0.00000000E+00
  0.00000000E+00  0.00000000E+00  0.00000000E+00
  0.00000000E+00  0.00000000E+00  0.00000000E+00
  0.00000000E+00  0.00000000E+00  0.00000000E+00
  0.00000000E+00  0.00000000E+00  0.00000000E+00
  0.00000000E+00  0.00000000E+00  0.00000000E+00
  0.00000000E+00  0.00000000E+00  0.00000000E+00
  0.00000000E+00  0.00000000E+00  0.00000000E+00
  0.00000000E+00  0.00000000E+00  0.00000000E+00
  0.00000000E+00  0.00000000E+00  0.00000000E+00
  0.00000000E+00  0.00000000E+00  0.00000000E+00
