Ho1Ir1Si1   [ORC,ORC,oP12] (STD_PRIM doi
   1.00000000000000     
     4.2210994538369171    0.0000000000000000    0.0000000000000000
     0.0000000000000000    6.8300710018488182    0.0000000000000000
     0.0000000000000000    0.0000000000000000    7.3641447792186474
   4   4   4
Direct
  0.2500000000000000  0.0006574875441563  0.3123309100484234
  0.7500000000000000  0.4993425124558437  0.8123309100484234
  0.7500000000000000  0.9993425124558436  0.6876690899515766
  0.2500000000000000  0.5006574875441564  0.1876690899515766
  0.2500000000000000  0.3436460447652878  0.5689065430111564
  0.7500000000000000  0.1563539552347122  0.0689065430111564
  0.7500000000000000  0.6563539552347122  0.4310934569888437
  0.2500000000000000  0.8436460447652878  0.9310934569888436
  0.2500000000000000  0.7017204881267031  0.6073306068803889
  0.7500000000000000  0.7982795118732969  0.1073306068803889
  0.7500000000000000  0.2982795118732970  0.3926693931196111
  0.2500000000000000  0.2017204881267030  0.8926693931196111
 
  0.00000000E+00  0.00000000E+00  0.00000000E+00
  0.00000000E+00  0.00000000E+00  0.00000000E+00
  0.00000000E+00  0.00000000E+00  0.00000000E+00
  0.00000000E+00  0.00000000E+00  0.00000000E+00
  0.00000000E+00  0.00000000E+00  0.00000000E+00
  0.00000000E+00  0.00000000E+00  0.00000000E+00
  0.00000000E+00  0.00000000E+00  0.00000000E+00
  0.00000000E+00  0.00000000E+00  0.00000000E+00
  0.00000000E+00  0.00000000E+00  0.00000000E+00
  0.00000000E+00  0.00000000E+00  0.00000000E+00
  0.00000000E+00  0.00000000E+00  0.00000000E+00
  0.00000000E+00  0.00000000E+00  0.00000000E+00
