Hg2Pt1   [TET,TET,tP3] (STD_PRIM doi:10.
   1.00000000000000     
     4.8021385703430219    0.0000000000000000    0.0000000000000000
     0.0000000000000000    4.8021385703430219    0.0000000000000000
     0.0000000000000000    0.0000000000000000    2.9769765182762287
   2   1
Direct
  0.0000000000000000  0.5000000000000000  0.5000000000000000
  0.5000000000000000  0.0000000000000000  0.5000000000000000
  0.0000000000000000  0.0000000000000000  0.0000000000000000
 
  0.00000000E+00  0.00000000E+00  0.00000000E+00
  0.00000000E+00  0.00000000E+00  0.00000000E+00
  0.00000000E+00  0.00000000E+00  0.00000000E+00
