Ge6Ru7Sc4   [BCC,BCC,cI34] (STD_PRIM doi
   1.00000000000000     
    -4.1000752760183694    4.1000752760183694    4.1000752760183694
     4.1000752760183694   -4.1000752760183694    4.1000752760183694
     4.1000752760183694    4.1000752760183694   -4.1000752760183694
   6   7   4
Direct
  0.6880579716942304  0.6880579716942304  0.0000000000000000
  0.3119420283057694  0.3119420283057694 -0.0000000000000000
  0.6880579716942304  0.0000000000000000  0.6880579716942304
  0.3119420283057694  0.0000000000000000  0.3119420283057694
  0.0000000000000000  0.6880579716942304  0.6880579716942304
  0.0000000000000000  0.3119420283057694  0.3119420283057694
  0.7500000000000000  0.2500000000000000  0.5000000000000000
  0.2500000000000000  0.7500000000000000  0.5000000000000000
  0.2500000000000000  0.5000000000000000  0.7500000000000000
  0.7500000000000000  0.5000000000000000  0.2500000000000000
  0.5000000000000000  0.7500000000000000  0.2500000000000000
  0.5000000000000000  0.2500000000000000  0.7500000000000000
  0.0000000000000000  0.0000000000000000  0.0000000000000000
  0.5000000000000000  0.5000000000000000  0.5000000000000000
  0.5000000000000000 -0.0000000000000000  0.0000000000000000
  0.0000000000000000  0.5000000000000000  0.0000000000000000
  0.0000000000000000  0.0000000000000000  0.5000000000000000
 
  0.00000000E+00  0.00000000E+00  0.00000000E+00
  0.00000000E+00  0.00000000E+00  0.00000000E+00
  0.00000000E+00  0.00000000E+00  0.00000000E+00
  0.00000000E+00  0.00000000E+00  0.00000000E+00
  0.00000000E+00  0.00000000E+00  0.00000000E+00
  0.00000000E+00  0.00000000E+00  0.00000000E+00
  0.00000000E+00  0.00000000E+00  0.00000000E+00
  0.00000000E+00  0.00000000E+00  0.00000000E+00
  0.00000000E+00  0.00000000E+00  0.00000000E+00
  0.00000000E+00  0.00000000E+00  0.00000000E+00
  0.00000000E+00  0.00000000E+00  0.00000000E+00
  0.00000000E+00  0.00000000E+00  0.00000000E+00
  0.00000000E+00  0.00000000E+00  0.00000000E+00
  0.00000000E+00  0.00000000E+00  0.00000000E+00
  0.00000000E+00  0.00000000E+00  0.00000000E+00
  0.00000000E+00  0.00000000E+00  0.00000000E+00
  0.00000000E+00  0.00000000E+00  0.00000000E+00
