Mo1P1   [HEX,HEX,hP2] (STD_PRIM doi:10.1
   1.00000000000000     
     1.6247882504011246   -2.8141356929944719    0.0000000000000000
     1.6247188746291723    2.8140956388738596    0.0000000000000000
     0.0000000000000000    0.0000000000000000    3.2183184716577715
   1   1
Direct
  0.0000275558923454  0.0000137779461763  0.0000000000000000
  0.3333724441076520  0.6666862220538295  0.5000000000000000
 
  0.00000000E+00  0.00000000E+00  0.00000000E+00
  0.00000000E+00  0.00000000E+00  0.00000000E+00
