Fe1Si1Zr1   [ORC,ORC,oP12] (STD_PRIM doi
   1.00000000000000     
     4.0473400453638311    0.0000000000000000    0.0000000000000000
     0.0000000000000000    6.5227067344706526    0.0000000000000000
     0.0000000000000000    0.0000000000000000    6.7759494651616734
   4   4   4
Direct
  0.2500000000000000  0.1518599146831751  0.9416779042997729
  0.7500000000000000  0.3481400853168249  0.4416779042997729
  0.7500000000000000  0.8481400853168248  0.0583220957002270
  0.2500000000000000  0.6518599146831752  0.5583220957002271
  0.2500000000000000  0.2929973038547989  0.6074755794268106
  0.7500000000000000  0.2070026961452011  0.1074755794268106
  0.7500000000000000  0.7070026961452011  0.3925244205731894
  0.2500000000000000  0.7929973038547989  0.8925244205731894
  0.2500000000000000  0.9809232798472843  0.3043382056978196
  0.7500000000000000  0.5190767201527157  0.8043382056978197
  0.7500000000000000  0.0190767201527157  0.6956617943021803
  0.2500000000000000  0.4809232798472843  0.1956617943021803
 
  0.00000000E+00  0.00000000E+00  0.00000000E+00
  0.00000000E+00  0.00000000E+00  0.00000000E+00
  0.00000000E+00  0.00000000E+00  0.00000000E+00
  0.00000000E+00  0.00000000E+00  0.00000000E+00
  0.00000000E+00  0.00000000E+00  0.00000000E+00
  0.00000000E+00  0.00000000E+00  0.00000000E+00
  0.00000000E+00  0.00000000E+00  0.00000000E+00
  0.00000000E+00  0.00000000E+00  0.00000000E+00
  0.00000000E+00  0.00000000E+00  0.00000000E+00
  0.00000000E+00  0.00000000E+00  0.00000000E+00
  0.00000000E+00  0.00000000E+00  0.00000000E+00
  0.00000000E+00  0.00000000E+00  0.00000000E+00
