Ir1N2   [MCL,MCL,mP12] (STD_PRIM doi:10.
   1.00000000000000     
     4.9260443764032464    0.0000000000000000    0.0000000000000000
     0.0000000000000000    4.8594620776764907   -0.0221549656728974
     0.0000000000000000    1.5345227439492166    4.6540930156299467
   4   8
Direct
  0.9998154636464698  0.7672349214784704  0.2204071778993406
  0.4998154636464698  0.2327650785215296  0.2795928221006594
  0.0001845363535302  0.2327650785215296  0.7795928221006594
  0.5001845363535302  0.7672349214784704  0.7204071778993406
  0.5960845400134424  0.8140098178654318  0.2989230385614638
  0.0960845400134424  0.1859901821345682  0.2010769614385362
  0.4039154599865576  0.1859901821345682  0.7010769614385360
  0.9039154599865576  0.8140098178654318  0.7989230385614640
  0.4141682567548423  0.6762054032504196  0.1593928393598045
  0.9141682567548423  0.3237945967495805  0.3406071606401955
  0.5858317432451577  0.3237945967495805  0.8406071606401955
  0.0858317432451577  0.6762054032504196  0.6593928393598045
 
  0.00000000E+00  0.00000000E+00  0.00000000E+00
  0.00000000E+00  0.00000000E+00  0.00000000E+00
  0.00000000E+00  0.00000000E+00  0.00000000E+00
  0.00000000E+00  0.00000000E+00  0.00000000E+00
  0.00000000E+00  0.00000000E+00  0.00000000E+00
  0.00000000E+00  0.00000000E+00  0.00000000E+00
  0.00000000E+00  0.00000000E+00  0.00000000E+00
  0.00000000E+00  0.00000000E+00  0.00000000E+00
  0.00000000E+00  0.00000000E+00  0.00000000E+00
  0.00000000E+00  0.00000000E+00  0.00000000E+00
  0.00000000E+00  0.00000000E+00  0.00000000E+00
  0.00000000E+00  0.00000000E+00  0.00000000E+00
