Pb1Pd2Y2   [TET,TET,tP10] (STD_PRIM doi:
   1.00000000000000     
     7.8516839736705011    0.0000000000000000   -0.0000000000000000
     0.0000000000000000    7.8516839736705011    0.0000000000000000
     0.0000000000000000    0.0000000000000000    3.6813588155632320
   2   4   4
Direct
  0.0000000000000000  0.0000000000000000  0.0000000000000000
  0.5000000000000000  0.5000000000000000  0.0000000000000000
  0.3747252766547657  0.8747252766547656  0.0000000000000000
  0.6252747233452344  0.1252747233452343 -0.0000000000000000
  0.1252747233452343  0.3747252766547657 -0.0000000000000000
  0.8747252766547656  0.6252747233452344  0.0000000000000000
  0.1726262752021802  0.6726262752021802  0.5000000000000000
  0.8273737247978198  0.3273737247978198  0.5000000000000000
  0.3273737247978198  0.1726262752021802  0.5000000000000000
  0.6726262752021802  0.8273737247978198  0.5000000000000000
 
  0.00000000E+00  0.00000000E+00  0.00000000E+00
  0.00000000E+00  0.00000000E+00  0.00000000E+00
  0.00000000E+00  0.00000000E+00  0.00000000E+00
  0.00000000E+00  0.00000000E+00  0.00000000E+00
  0.00000000E+00  0.00000000E+00  0.00000000E+00
  0.00000000E+00  0.00000000E+00  0.00000000E+00
  0.00000000E+00  0.00000000E+00  0.00000000E+00
  0.00000000E+00  0.00000000E+00  0.00000000E+00
  0.00000000E+00  0.00000000E+00  0.00000000E+00
  0.00000000E+00  0.00000000E+00  0.00000000E+00
