Ca1Ga1Ge1   [HEX,HEX,hP12] (STD_PRIM doi
   1.00000000000000     
     2.1211475750779356   -3.6739353703865087   -0.0000000000000000
     2.1210192842411293    3.6738613016373440   -0.0000000000000000
     0.0000000000000000    0.0000000000000000   17.3213810620007145
   4   4   4
Direct
  0.0000000000000000  0.0000000000000000  0.0000000000000000
  0.0000000000000000  0.0000000000000000  0.5000000000000000
  0.0000077589974767  0.0000155179949534  0.2500000000000000
  0.9999922410025233  0.9999844820050465  0.7500000000000000
  0.6666519530366529  0.3333039060733058  0.1522360049336449
  0.3333480469633470  0.6666960939266940  0.6522360049336450
  0.3333480469633470  0.6666960939266940  0.8477639950663550
  0.6666519530366529  0.3333039060733058  0.3477639950663550
  0.6666548416197632  0.3333096832395264  0.6097895761321055
  0.3333451583802368  0.6666903167604736  0.1097895761321056
  0.3333451583802368  0.6666903167604736  0.3902104238678944
  0.6666548416197632  0.3333096832395264  0.8902104238678945
 
  0.00000000E+00  0.00000000E+00  0.00000000E+00
  0.00000000E+00  0.00000000E+00  0.00000000E+00
  0.00000000E+00  0.00000000E+00  0.00000000E+00
  0.00000000E+00  0.00000000E+00  0.00000000E+00
  0.00000000E+00  0.00000000E+00  0.00000000E+00
  0.00000000E+00  0.00000000E+00  0.00000000E+00
  0.00000000E+00  0.00000000E+00  0.00000000E+00
  0.00000000E+00  0.00000000E+00  0.00000000E+00
  0.00000000E+00  0.00000000E+00  0.00000000E+00
  0.00000000E+00  0.00000000E+00  0.00000000E+00
  0.00000000E+00  0.00000000E+00  0.00000000E+00
  0.00000000E+00  0.00000000E+00  0.00000000E+00
