Hg1Pd1   [TET,TET,tP2] (STD_PRIM doi:10.
   1.00000000000000     
     3.0907479945045275    0.0000000000000000    0.0000000000000000
     0.0000000000000000    3.0907479945045275    0.0000000000000000
    -0.0000000000000000   -0.0000000000000000    3.7760372663063380
   1   1
Direct
  0.0000000000000000  0.0000000000000000  0.0000000000000000
  0.5000000000000000  0.5000000000000000  0.5000000000000000
 
  0.00000000E+00  0.00000000E+00  0.00000000E+00
  0.00000000E+00  0.00000000E+00  0.00000000E+00
