CV_sv/201 - (201) - ???? [AB] (201)  HTQ
   1.24482600000000     
     0.0000000000000000    1.6724208831464544    1.6724208831464544
     1.6724208831464544    0.0000000000000000    1.6724208831464544
     1.6724208831464544    1.6724208831464544    0.0000000000000000
   1   1
Direct
  0.0000000000000000  0.0000000000000000  0.0000000000000000
  0.5000000000000000  0.5000000000000000  0.5000000000000000
 
  0.00000000E+00  0.00000000E+00  0.00000000E+00
  0.00000000E+00  0.00000000E+00  0.00000000E+00
