Cl6K2Re1   [FCC,FCC,cF36] (STD_PRIM doi:
   1.22474500000000     
     0.0000000000000000    4.1295059774891403    4.1295059774891403
     4.1295059774891403   -0.0000000000000000    4.1295059774891403
     4.1295059774891403    4.1295059774891403    0.0000000000000000
   6   2   1
Direct
  0.7637520678934037  0.2362479321065963  0.7637520678934037
  0.2362479321065963  0.7637520678934037  0.2362479321065963
  0.7637520678934037  0.7637520678934037  0.2362479321065963
  0.2362479321065963  0.2362479321065963  0.7637520678934037
  0.7637520678934037  0.2362479321065963  0.2362479321065963
  0.2362479321065963  0.7637520678934037  0.7637520678934037
  0.2500000000000000  0.2500000000000000  0.2500000000000000
  0.7500000000000000  0.7500000000000000  0.7500000000000000
  0.0000000000000000 -0.0000000000000000  0.0000000000000000
 
  0.00000000E+00  0.00000000E+00  0.00000000E+00
  0.00000000E+00  0.00000000E+00  0.00000000E+00
  0.00000000E+00  0.00000000E+00  0.00000000E+00
  0.00000000E+00  0.00000000E+00  0.00000000E+00
  0.00000000E+00  0.00000000E+00  0.00000000E+00
  0.00000000E+00  0.00000000E+00  0.00000000E+00
  0.00000000E+00  0.00000000E+00  0.00000000E+00
  0.00000000E+00  0.00000000E+00  0.00000000E+00
  0.00000000E+00  0.00000000E+00  0.00000000E+00
