Al2Ho3   [TET,TET,tP20] (STD_PRIM doi:10
   1.00000000000000     
     8.1993582638543749    0.0000000000000000    0.0000000000000000
     0.0000000000000000    8.1993582638543749    0.0000000000000000
     0.0000000000000000    0.0000000000000000    7.5614142847405681
   8  12
Direct
  0.3804530031282883  0.3804530031282883  0.0600612882040425
  0.6195469968717116  0.6195469968717116  0.0600612882040425
  0.1195469968717116  0.8804530031282884  0.5600612882040424
  0.8804530031282884  0.1195469968717116  0.5600612882040424
  0.3805218364734999  0.3805218364734999  0.4519850329586217
  0.6194781635265002  0.6194781635265002  0.4519850329586217
  0.1194781635265001  0.8805218364734998  0.9519850329586218
  0.8805218364734998  0.1194781635265001  0.9519850329586218
  0.0000000000000000  0.5000000000000000  0.0067713374901026
  0.0000000000000000  0.5000000000000000  0.5067713374901027
  0.5000000000000000  0.0000000000000000  0.5067713374901027
  0.5000000000000000  0.0000000000000000  0.0067713374901026
  0.1499248430969785  0.1499248430969785  0.2562005390049442
  0.8500751569030216  0.8500751569030216  0.2562005390049442
  0.3500751569030216  0.6499248430969784  0.7562005390049442
  0.6499248430969784  0.3500751569030216  0.7562005390049442
  0.2011421358887100  0.2011421358887100  0.7559818023422876
  0.7988578641112900  0.7988578641112900  0.7559818023422876
  0.2988578641112900  0.7011421358887100  0.2559818023422877
  0.7011421358887100  0.2988578641112900  0.2559818023422877
 
  0.00000000E+00  0.00000000E+00  0.00000000E+00
  0.00000000E+00  0.00000000E+00  0.00000000E+00
  0.00000000E+00  0.00000000E+00  0.00000000E+00
  0.00000000E+00  0.00000000E+00  0.00000000E+00
  0.00000000E+00  0.00000000E+00  0.00000000E+00
  0.00000000E+00  0.00000000E+00  0.00000000E+00
  0.00000000E+00  0.00000000E+00  0.00000000E+00
  0.00000000E+00  0.00000000E+00  0.00000000E+00
  0.00000000E+00  0.00000000E+00  0.00000000E+00
  0.00000000E+00  0.00000000E+00  0.00000000E+00
  0.00000000E+00  0.00000000E+00  0.00000000E+00
  0.00000000E+00  0.00000000E+00  0.00000000E+00
  0.00000000E+00  0.00000000E+00  0.00000000E+00
  0.00000000E+00  0.00000000E+00  0.00000000E+00
  0.00000000E+00  0.00000000E+00  0.00000000E+00
  0.00000000E+00  0.00000000E+00  0.00000000E+00
  0.00000000E+00  0.00000000E+00  0.00000000E+00
  0.00000000E+00  0.00000000E+00  0.00000000E+00
  0.00000000E+00  0.00000000E+00  0.00000000E+00
  0.00000000E+00  0.00000000E+00  0.00000000E+00
