In1Li1O2   [BCT,BCT2,tI16] (STD_PRIM doi
   1.00000000000000     
    -2.1779365177484196    2.1779365177484196    4.7231682953583132
     2.1779365177484196   -2.1779365177484196    4.7231682953583132
     2.1779365177484196    2.1779365177484196   -4.7231682953583132
   2   2   4
Direct
  0.0000000000000000  0.0000000000000000 -0.0000000000000000
  0.2500000000000000  0.7500000000000000  0.5000000000000000
  0.5000000000000000  0.5000000000000000 -0.0000000000000000
  0.7500000000000000  0.2500000000000000  0.5000000000000000
  0.2319663110634362  0.2319663110634362  0.0000000000000000
  0.4819663110634362  0.9819663110634361  0.5000000000000000
  0.0180336889365638  0.5180336889365639  0.5000000000000000
  0.7680336889365639  0.7680336889365639 -0.0000000000000000
 
  0.00000000E+00  0.00000000E+00  0.00000000E+00
  0.00000000E+00  0.00000000E+00  0.00000000E+00
  0.00000000E+00  0.00000000E+00  0.00000000E+00
  0.00000000E+00  0.00000000E+00  0.00000000E+00
  0.00000000E+00  0.00000000E+00  0.00000000E+00
  0.00000000E+00  0.00000000E+00  0.00000000E+00
  0.00000000E+00  0.00000000E+00  0.00000000E+00
  0.00000000E+00  0.00000000E+00  0.00000000E+00
