Pd2Sb2Sr1   [TET,TET,tP10] (STD_PRIM doi
   1.00000000000000     
     4.7001391983469167    0.0000000000000000   -0.0000000000000000
     0.0000000000000000    4.7001391983469167    0.0000000000000000
     0.0000000000000000   -0.0000000000000000   10.7580072832655134
   4   4   2
Direct
  0.7500000000000000  0.2500000000000000  0.0000000000000000
  0.2500000000000000  0.7500000000000000  0.0000000000000000
  0.2500000000000000  0.2500000000000000  0.3707806160384384
  0.7500000000000000  0.7500000000000000  0.6292193839615616
  0.7500000000000000  0.2500000000000000  0.5000000000000000
  0.2500000000000000  0.7500000000000000  0.5000000000000000
  0.2500000000000000  0.2500000000000000  0.1246231514672327
  0.7500000000000000  0.7500000000000000  0.8753768485327673
  0.2500000000000000  0.2500000000000000  0.7594768481028596
  0.7500000000000000  0.7500000000000000  0.2405231518971403
 
  0.00000000E+00  0.00000000E+00  0.00000000E+00
  0.00000000E+00  0.00000000E+00  0.00000000E+00
  0.00000000E+00  0.00000000E+00  0.00000000E+00
  0.00000000E+00  0.00000000E+00  0.00000000E+00
  0.00000000E+00  0.00000000E+00  0.00000000E+00
  0.00000000E+00  0.00000000E+00  0.00000000E+00
  0.00000000E+00  0.00000000E+00  0.00000000E+00
  0.00000000E+00  0.00000000E+00  0.00000000E+00
  0.00000000E+00  0.00000000E+00  0.00000000E+00
  0.00000000E+00  0.00000000E+00  0.00000000E+00
