Ge1N2Sr2 #64 - (Ge1N2Sr2_ICSD_153302) - 
   1.00000000000000     
     2.7298620233289181   -5.7386556133660553   -0.0000000000000000
     2.7298620233289181    5.7386556133660553    0.0000000000000000
     0.0000000000000000    0.0000000000000000   12.2656332455524186
   4   8   8
Direct
  0.7601476659317805  0.2398523340682195  0.8197236680798410
  0.7398523340682195  0.2601476659317805  0.3197236680798410
  0.2601476659317805  0.7398523340682195  0.6802763319201590
  0.2398523340682195  0.7601476659317805  0.1802763319201590
  0.9213209803730728  0.0786790196269273  0.8584758606332876
  0.5786790196269272  0.4213209803730727  0.3584758606332875
  0.4213209803730727  0.5786790196269272  0.6415241393667124
  0.0786790196269273  0.9213209803730728  0.1415241393667125
  0.6597485532153806  0.3402514467846194  0.9405268620414223
  0.8402514467846194  0.1597485532153805  0.4405268620414223
  0.1597485532153805  0.8402514467846194  0.5594731379585777
  0.3402514467846194  0.6597485532153806  0.0594731379585777
  0.9521319630019155  0.0478680369980845  0.6422403479263485
  0.5478680369980845  0.4521319630019154  0.1422403479263485
  0.4521319630019154  0.5478680369980845  0.8577596520736515
  0.0478680369980845  0.9521319630019155  0.3577596520736515
  0.6441211004614155  0.3558788995385845  0.5579980199347567
  0.8558788995385845  0.1441211004614155  0.0579980199347567
  0.1441211004614155  0.8558788995385845  0.9420019800652433
  0.3558788995385845  0.6441211004614155  0.4420019800652433
 
  0.00000000E+00  0.00000000E+00  0.00000000E+00
  0.00000000E+00  0.00000000E+00  0.00000000E+00
  0.00000000E+00  0.00000000E+00  0.00000000E+00
  0.00000000E+00  0.00000000E+00  0.00000000E+00
  0.00000000E+00  0.00000000E+00  0.00000000E+00
  0.00000000E+00  0.00000000E+00  0.00000000E+00
  0.00000000E+00  0.00000000E+00  0.00000000E+00
  0.00000000E+00  0.00000000E+00  0.00000000E+00
  0.00000000E+00  0.00000000E+00  0.00000000E+00
  0.00000000E+00  0.00000000E+00  0.00000000E+00
  0.00000000E+00  0.00000000E+00  0.00000000E+00
  0.00000000E+00  0.00000000E+00  0.00000000E+00
  0.00000000E+00  0.00000000E+00  0.00000000E+00
  0.00000000E+00  0.00000000E+00  0.00000000E+00
  0.00000000E+00  0.00000000E+00  0.00000000E+00
  0.00000000E+00  0.00000000E+00  0.00000000E+00
  0.00000000E+00  0.00000000E+00  0.00000000E+00
  0.00000000E+00  0.00000000E+00  0.00000000E+00
  0.00000000E+00  0.00000000E+00  0.00000000E+00
  0.00000000E+00  0.00000000E+00  0.00000000E+00
