Bi5La3Sc1 #193 - (Bi5La3Sc1_ICSD_416609)
   1.00000000000000     
     4.9586703460591393   -8.5907739967910022    0.0000000000000000
     4.9586703460591393    8.5907739967910022    0.0000000000000000
    -0.0000000000000000    0.0000000000000000    6.6420370270357960
  10   6   2
Direct
  0.2617228578830907  0.0000475354159396  0.2500000000000000
  0.0000475354159396  0.2617228578830907  0.2500000000000000
  0.7383120580420038  0.7383120580420038  0.2500000000000000
  0.7382771421169092  0.9999524645840604  0.7500000000000000
  0.9999524645840604  0.7382771421169092  0.7500000000000000
  0.2616879419579963  0.2616879419579963  0.7500000000000000
  0.3333399976275249  0.6666600023724751 -0.0000000000000000
  0.6666600023724751  0.3333399976275249  0.5000000000000000
  0.6666600023724751  0.3333399976275249  0.0000000000000000
  0.3333399976275249  0.6666600023724751  0.5000000000000000
  0.0000235167461375  0.6194000769534431  0.2500000000000000
  0.3806401691926544  0.3806401691926544  0.2500000000000000
  0.6194000769534431  0.0000235167461375  0.2500000000000000
  0.9999764832538626  0.3805999230465569  0.7500000000000000
  0.6193598308073457  0.6193598308073457  0.7500000000000000
  0.3805999230465569  0.9999764832538626  0.7500000000000000
 -0.0000000000000000  0.0000000000000000  0.0000000000000000
  0.0000000000000000 -0.0000000000000000  0.5000000000000000
 
  0.00000000E+00  0.00000000E+00  0.00000000E+00
  0.00000000E+00  0.00000000E+00  0.00000000E+00
  0.00000000E+00  0.00000000E+00  0.00000000E+00
  0.00000000E+00  0.00000000E+00  0.00000000E+00
  0.00000000E+00  0.00000000E+00  0.00000000E+00
  0.00000000E+00  0.00000000E+00  0.00000000E+00
  0.00000000E+00  0.00000000E+00  0.00000000E+00
  0.00000000E+00  0.00000000E+00  0.00000000E+00
  0.00000000E+00  0.00000000E+00  0.00000000E+00
  0.00000000E+00  0.00000000E+00  0.00000000E+00
  0.00000000E+00  0.00000000E+00  0.00000000E+00
  0.00000000E+00  0.00000000E+00  0.00000000E+00
  0.00000000E+00  0.00000000E+00  0.00000000E+00
  0.00000000E+00  0.00000000E+00  0.00000000E+00
  0.00000000E+00  0.00000000E+00  0.00000000E+00
  0.00000000E+00  0.00000000E+00  0.00000000E+00
  0.00000000E+00  0.00000000E+00  0.00000000E+00
  0.00000000E+00  0.00000000E+00  0.00000000E+00
