Ho4In1Rh1   [FCC,FCC,cF96] (STD_PRIM doi
   1.22474500000000     
     0.0000000000000000    5.5367999669520174    5.5367999669520174
     5.5367999669520174   -0.0000000000000000    5.5367999669520174
     5.5367999669520174    5.5367999669520174    0.0000000000000000
  16   4   4
Direct
  0.5627943423093588  0.9372056576906412  0.5627943423093588
  0.9372056576906412  0.5627943423093588  0.9372056576906412
  0.5627943423093588  0.9372056576906412  0.9372056576906412
  0.9372056576906412  0.5627943423093588  0.5627943423093588
  0.9372056576906412  0.9372056576906412  0.5627943423093588
  0.5627943423093588  0.5627943423093588  0.9372056576906412
  0.1890879427742593  0.8109120572257407  0.1890879427742593
  0.8109120572257407  0.1890879427742593  0.8109120572257407
  0.1890879427742593  0.8109120572257407  0.8109120572257407
  0.8109120572257407  0.1890879427742593  0.1890879427742593
  0.8109120572257407  0.8109120572257407  0.1890879427742593
  0.1890879427742593  0.1890879427742593  0.8109120572257407
  0.3492223801084826  0.9523328596745450  0.3492223801084826
  0.9523328596745450  0.3492223801084826  0.3492223801084826
  0.3492223801084826  0.3492223801084826  0.9523328596745450
  0.3492223801084826  0.3492223801084826  0.3492223801084826
  0.5827103328007202  0.2518690015978465  0.5827103328007202
  0.2518690015978465  0.5827103328007202  0.5827103328007202
  0.5827103328007202  0.5827103328007202  0.2518690015978465
  0.5827103328007202  0.5827103328007202  0.5827103328007202
  0.1423905445769308  0.5728283662692076  0.1423905445769308
  0.5728283662692076  0.1423905445769308  0.1423905445769308
  0.1423905445769308  0.1423905445769308  0.5728283662692076
  0.1423905445769308  0.1423905445769308  0.1423905445769308
 
  0.00000000E+00  0.00000000E+00  0.00000000E+00
  0.00000000E+00  0.00000000E+00  0.00000000E+00
  0.00000000E+00  0.00000000E+00  0.00000000E+00
  0.00000000E+00  0.00000000E+00  0.00000000E+00
  0.00000000E+00  0.00000000E+00  0.00000000E+00
  0.00000000E+00  0.00000000E+00  0.00000000E+00
  0.00000000E+00  0.00000000E+00  0.00000000E+00
  0.00000000E+00  0.00000000E+00  0.00000000E+00
  0.00000000E+00  0.00000000E+00  0.00000000E+00
  0.00000000E+00  0.00000000E+00  0.00000000E+00
  0.00000000E+00  0.00000000E+00  0.00000000E+00
  0.00000000E+00  0.00000000E+00  0.00000000E+00
  0.00000000E+00  0.00000000E+00  0.00000000E+00
  0.00000000E+00  0.00000000E+00  0.00000000E+00
  0.00000000E+00  0.00000000E+00  0.00000000E+00
  0.00000000E+00  0.00000000E+00  0.00000000E+00
  0.00000000E+00  0.00000000E+00  0.00000000E+00
  0.00000000E+00  0.00000000E+00  0.00000000E+00
  0.00000000E+00  0.00000000E+00  0.00000000E+00
  0.00000000E+00  0.00000000E+00  0.00000000E+00
  0.00000000E+00  0.00000000E+00  0.00000000E+00
  0.00000000E+00  0.00000000E+00  0.00000000E+00
  0.00000000E+00  0.00000000E+00  0.00000000E+00
  0.00000000E+00  0.00000000E+00  0.00000000E+00
