Sn1Ti2   [HEX,HEX,hP6] (STD_PRIM doi:10.
   1.00000000000000     
     2.4203290323745921   -4.1874169639998113    0.0000000000000000
     2.4203290323745921    4.1874169639998113   -0.0000000000000000
     0.0000000000000000   -0.0000000000000000    5.7797204862604543
   2   4
Direct
  0.3333762651632407  0.6666237348367593  0.2500000000000000
  0.6666237348367593  0.3333762651632407  0.7500000000000000
 -0.0000000000000000 -0.0000000000000000  0.0000000000000000
  0.0000000000000000 -0.0000000000000000  0.5000000000000000
  0.3330818902399152  0.6669181097600848  0.7500000000000000
  0.6669181097600848  0.3330818902399152  0.2500000000000000
 
  0.00000000E+00  0.00000000E+00  0.00000000E+00
  0.00000000E+00  0.00000000E+00  0.00000000E+00
  0.00000000E+00  0.00000000E+00  0.00000000E+00
  0.00000000E+00  0.00000000E+00  0.00000000E+00
  0.00000000E+00  0.00000000E+00  0.00000000E+00
  0.00000000E+00  0.00000000E+00  0.00000000E+00
