Co1Sb3   [BCC,BCC,cI32] (STD_PRIM doi:10
   1.00000000000000     
    -4.5443167733875587    4.5443167733875587    4.5443167733875587
     4.5443167733875587   -4.5443167733875587    4.5443167733875587
     4.5443167733875587    4.5443167733875587   -4.5443167733875587
   4  12
Direct
  0.5000000000000000 -0.0000000000000000 -0.0000000000000000
  0.5000000000000000  0.5000000000000000  0.5000000000000000
  0.0000000000000000  0.5000000000000000  0.0000000000000000
 -0.0000000000000000 -0.0000000000000000  0.5000000000000000
  0.6663071483289585  0.8254248093940569  0.1591176610650983
  0.3336928516710414  0.4928105127361397  0.1591176610650983
  0.6663071483289585  0.5071894872638603  0.8408823389349017
  0.3336928516710414  0.1745751906059430  0.8408823389349017
  0.8408823389349017  0.3336928516710414  0.1745751906059430
  0.8408823389349017  0.6663071483289585  0.5071894872638603
  0.1591176610650983  0.3336928516710414  0.4928105127361397
  0.1591176610650983  0.6663071483289585  0.8254248093940569
  0.5071894872638603  0.8408823389349017  0.6663071483289585
  0.1745751906059430  0.8408823389349017  0.3336928516710414
  0.8254248093940569  0.1591176610650983  0.6663071483289585
  0.4928105127361397  0.1591176610650983  0.3336928516710414
 
  0.00000000E+00  0.00000000E+00  0.00000000E+00
  0.00000000E+00  0.00000000E+00  0.00000000E+00
  0.00000000E+00  0.00000000E+00  0.00000000E+00
  0.00000000E+00  0.00000000E+00  0.00000000E+00
  0.00000000E+00  0.00000000E+00  0.00000000E+00
  0.00000000E+00  0.00000000E+00  0.00000000E+00
  0.00000000E+00  0.00000000E+00  0.00000000E+00
  0.00000000E+00  0.00000000E+00  0.00000000E+00
  0.00000000E+00  0.00000000E+00  0.00000000E+00
  0.00000000E+00  0.00000000E+00  0.00000000E+00
  0.00000000E+00  0.00000000E+00  0.00000000E+00
  0.00000000E+00  0.00000000E+00  0.00000000E+00
  0.00000000E+00  0.00000000E+00  0.00000000E+00
  0.00000000E+00  0.00000000E+00  0.00000000E+00
  0.00000000E+00  0.00000000E+00  0.00000000E+00
  0.00000000E+00  0.00000000E+00  0.00000000E+00
