Cu1Dy2Ge6   [ORCC,ORCC,oS18] (STD_PRIM d
   1.00000000000000     
     2.0139087471355666  -10.6868034104099241    0.0000000000000000
     2.0139087471355666   10.6868034104099241    0.0000000000000000
     0.0000000000000000    0.0000000000000000    4.0956580936292939
   1   2   6
Direct
  0.2240818155789354  0.7759181844210646  0.5000000000000000
  0.0046302904418503  0.9953697095581497  0.0000000000000000
  0.6689386949031457  0.3310613050968542  0.0000000000000000
  0.2852547802135162  0.7147452197864838  0.0000000000000000
  0.4017977654852076  0.5982022345147923  0.0000000000000000
  0.5425159711038624  0.4574840288961377  0.5000000000000000
  0.1154843818757777  0.8845156181242223  0.5000000000000000
  0.9025544639629332  0.0974455360370668  0.5000000000000000
  0.7857418364347760  0.2142581635652241  0.5000000000000000
 
  0.00000000E+00  0.00000000E+00  0.00000000E+00
  0.00000000E+00  0.00000000E+00  0.00000000E+00
  0.00000000E+00  0.00000000E+00  0.00000000E+00
  0.00000000E+00  0.00000000E+00  0.00000000E+00
  0.00000000E+00  0.00000000E+00  0.00000000E+00
  0.00000000E+00  0.00000000E+00  0.00000000E+00
  0.00000000E+00  0.00000000E+00  0.00000000E+00
  0.00000000E+00  0.00000000E+00  0.00000000E+00
  0.00000000E+00  0.00000000E+00  0.00000000E+00
