Al16Pt7Ti6   [FCC,FCC,cF116] (STD_PRIM d
   1.22474500000000     
    -0.0000000000000000    4.9963606671589016    4.9963606671589016
     4.9963606671589016    0.0000000000000000    4.9963606671589016
     4.9963606671589016    4.9963606671589016    0.0000000000000000
  16   7   6
Direct
  0.8800232806889862  0.8800232806889862  0.3599301579330345
  0.8800232806889862  0.3599301579330345  0.8800232806889862
  0.3599301579330345  0.8800232806889862  0.8800232806889862
  0.8800232806889862  0.8800232806889862  0.8800232806889862
  0.1199767193110138  0.6400698420669656  0.1199767193110138
  0.1199767193110138  0.1199767193110138  0.6400698420669656
  0.6400698420669656  0.1199767193110138  0.1199767193110138
  0.1199767193110138  0.1199767193110138  0.1199767193110138
  0.6623769200213581  0.6623769200213581  0.0128692399359260
  0.6623769200213581  0.0128692399359260  0.6623769200213581
  0.0128692399359260  0.6623769200213581  0.6623769200213581
  0.6623769200213581  0.6623769200213581  0.6623769200213581
  0.3376230799786420  0.9871307600640740  0.3376230799786420
  0.3376230799786420  0.3376230799786420  0.9871307600640740
  0.9871307600640740  0.3376230799786420  0.3376230799786420
  0.3376230799786420  0.3376230799786420  0.3376230799786420
 -0.0000000000000000 -0.0000000000000000  0.0000000000000000
  0.0000000000000000 -0.0000000000000000  0.5000000000000000
  0.5000000000000000  0.5000000000000000  0.0000000000000000
  0.5000000000000000 -0.0000000000000000  0.5000000000000000
  0.0000000000000000  0.5000000000000000 -0.0000000000000000
 -0.0000000000000000  0.5000000000000000  0.5000000000000000
  0.5000000000000000 -0.0000000000000000  0.0000000000000000
  0.6745079970557762  0.6745079970557762  0.3254920029442236
  0.3254920029442236  0.3254920029442236  0.6745079970557762
  0.3254920029442236  0.6745079970557762  0.3254920029442236
  0.6745079970557762  0.3254920029442236  0.6745079970557762
  0.6745079970557762  0.3254920029442236  0.3254920029442236
  0.3254920029442236  0.6745079970557762  0.6745079970557762
 
  0.00000000E+00  0.00000000E+00  0.00000000E+00
  0.00000000E+00  0.00000000E+00  0.00000000E+00
  0.00000000E+00  0.00000000E+00  0.00000000E+00
  0.00000000E+00  0.00000000E+00  0.00000000E+00
  0.00000000E+00  0.00000000E+00  0.00000000E+00
  0.00000000E+00  0.00000000E+00  0.00000000E+00
  0.00000000E+00  0.00000000E+00  0.00000000E+00
  0.00000000E+00  0.00000000E+00  0.00000000E+00
  0.00000000E+00  0.00000000E+00  0.00000000E+00
  0.00000000E+00  0.00000000E+00  0.00000000E+00
  0.00000000E+00  0.00000000E+00  0.00000000E+00
  0.00000000E+00  0.00000000E+00  0.00000000E+00
  0.00000000E+00  0.00000000E+00  0.00000000E+00
  0.00000000E+00  0.00000000E+00  0.00000000E+00
  0.00000000E+00  0.00000000E+00  0.00000000E+00
  0.00000000E+00  0.00000000E+00  0.00000000E+00
  0.00000000E+00  0.00000000E+00  0.00000000E+00
  0.00000000E+00  0.00000000E+00  0.00000000E+00
  0.00000000E+00  0.00000000E+00  0.00000000E+00
  0.00000000E+00  0.00000000E+00  0.00000000E+00
  0.00000000E+00  0.00000000E+00  0.00000000E+00
  0.00000000E+00  0.00000000E+00  0.00000000E+00
  0.00000000E+00  0.00000000E+00  0.00000000E+00
  0.00000000E+00  0.00000000E+00  0.00000000E+00
  0.00000000E+00  0.00000000E+00  0.00000000E+00
  0.00000000E+00  0.00000000E+00  0.00000000E+00
  0.00000000E+00  0.00000000E+00  0.00000000E+00
  0.00000000E+00  0.00000000E+00  0.00000000E+00
  0.00000000E+00  0.00000000E+00  0.00000000E+00
