C2Dy1Ni1   [ORCC,ORCC,oS8] (STD_PRIM doi
   1.00000000000000     
     2.2492044323577400   -3.0062793105175514    0.0000000000000000
     2.2492044323577400    3.0062793105175514    0.0000000000000000
     0.0000000000000000    0.0000000000000000    3.5666137262283821
   2   1   1
Direct
  0.5468004459876430  0.1479709508706595  0.5000000000000000
  0.8520290491293406  0.4531995540123571  0.5000000000000000
  0.0001646531007760  0.9998353468992239  0.0000000000000000
  0.3920058517822445  0.6079941482177557  0.5000000000000000
 
  0.00000000E+00  0.00000000E+00  0.00000000E+00
  0.00000000E+00  0.00000000E+00  0.00000000E+00
  0.00000000E+00  0.00000000E+00  0.00000000E+00
  0.00000000E+00  0.00000000E+00  0.00000000E+00
