Mg1Te1 #194 - (Mg1Te1_ICSD_168349) - Mg1
    1.000000000000000     
     2.1156698471330784   -3.6645165810354867    0.0000000000000000
     2.1156698471330784    3.6645165810354867    0.0000000000000000
     0.0000000000000000    0.0000000000000000    6.8779606356215375
   2   2
Direct
  0.0000000000000000  0.0000000000000000  0.0000000000000000
  0.0000000000000000  0.0000000000000000  0.5000000000000000
  0.3333144034209574  0.6666855965790426  0.2500000000000000
  0.6666855965790426  0.3333144034209574  0.7500000000000000
 
  0.00000000E+00  0.00000000E+00  0.00000000E+00
  0.00000000E+00  0.00000000E+00  0.00000000E+00
  0.00000000E+00  0.00000000E+00  0.00000000E+00
  0.00000000E+00  0.00000000E+00  0.00000000E+00
