Rh1Sn1Zr1 #189 - (Rh1Sn1Zr1_ICSD_650412)
    1.000000000000000     
     3.7143221948008787   -6.4333765680792148    0.0000000000000000
     3.7143221948008787    6.4333765680792148    0.0000000000000000
     0.0000000000000000    0.0000000000000000    3.6615779960541479
   3   3   3
Direct
  0.3333325584519585  0.6666691727530271  0.0000000000000000
  0.6666691727530271  0.3333325584519585  0.0000000000000000
  0.9999920515342473  0.9999920515342473  0.5000000000000000
  0.2686347885204865  0.0000032980382634  0.0000000000000000
  0.0000032980382634  0.2686347885204865  0.0000000000000000
  0.7313616409013727  0.7313616409013727  0.0000000000000000
  0.6025382869307225  0.0000037507883584  0.5000000000000000
  0.0000037507883584  0.6025382869307225  0.5000000000000000
  0.3974644520815710  0.3974644520815710  0.5000000000000000
 
  0.00000000E+00  0.00000000E+00  0.00000000E+00
  0.00000000E+00  0.00000000E+00  0.00000000E+00
  0.00000000E+00  0.00000000E+00  0.00000000E+00
  0.00000000E+00  0.00000000E+00  0.00000000E+00
  0.00000000E+00  0.00000000E+00  0.00000000E+00
  0.00000000E+00  0.00000000E+00  0.00000000E+00
  0.00000000E+00  0.00000000E+00  0.00000000E+00
  0.00000000E+00  0.00000000E+00  0.00000000E+00
  0.00000000E+00  0.00000000E+00  0.00000000E+00
