Al16Os7Sc6   [FCC,FCC,cF116] (STD_PRIM d
   1.22474500000000     
     0.0000000000000000    5.0696489709762984    5.0696489709762984
     5.0696489709762984    0.0000000000000000    5.0696489709762984
     5.0696489709762984    5.0696489709762984    0.0000000000000000
  16   7   6
Direct
  0.1207731788654924  0.6376804634035299  0.1207731788654924
  0.1207731788654924  0.1207731788654924  0.1207731788654924
  0.1207731788654924  0.1207731788654924  0.6376804634035299
  0.6376804634035299  0.1207731788654924  0.1207731788654924
  0.8792268211345077  0.8792268211345077  0.8792268211345077
  0.8792268211345077  0.3623195365964701  0.8792268211345077
  0.8792268211345077  0.8792268211345077  0.3623195365964701
  0.3623195365964701  0.8792268211345077  0.8792268211345077
  0.3354833442154566  0.9935499673536443  0.3354833442154566
  0.3354833442154566  0.3354833442154566  0.3354833442154566
  0.3354833442154566  0.3354833442154566  0.9935499673536443
  0.9935499673536443  0.3354833442154566  0.3354833442154566
  0.6645166557845433  0.6645166557845433  0.6645166557845433
  0.6645166557845433  0.0064500326463557  0.6645166557845433
  0.6645166557845433  0.6645166557845433  0.0064500326463557
  0.0064500326463557  0.6645166557845433  0.6645166557845433
  0.0000000000000000  0.0000000000000000 -0.0000000000000000
  0.5000000000000000  0.5000000000000000 -0.0000000000000000
  0.0000000000000000 -0.0000000000000000  0.5000000000000000
 -0.0000000000000000  0.5000000000000000  0.5000000000000000
  0.5000000000000000  0.0000000000000000 -0.0000000000000000
 -0.0000000000000000  0.5000000000000000  0.0000000000000000
  0.5000000000000000  0.0000000000000000  0.5000000000000000
  0.7101119831507454  0.7101119831507454  0.2898880168492546
  0.2898880168492546  0.2898880168492546  0.7101119831507454
  0.2898880168492546  0.7101119831507454  0.7101119831507454
  0.7101119831507454  0.2898880168492546  0.2898880168492546
  0.2898880168492546  0.7101119831507454  0.2898880168492546
  0.7101119831507454  0.2898880168492546  0.7101119831507454
 
  0.00000000E+00  0.00000000E+00  0.00000000E+00
  0.00000000E+00  0.00000000E+00  0.00000000E+00
  0.00000000E+00  0.00000000E+00  0.00000000E+00
  0.00000000E+00  0.00000000E+00  0.00000000E+00
  0.00000000E+00  0.00000000E+00  0.00000000E+00
  0.00000000E+00  0.00000000E+00  0.00000000E+00
  0.00000000E+00  0.00000000E+00  0.00000000E+00
  0.00000000E+00  0.00000000E+00  0.00000000E+00
  0.00000000E+00  0.00000000E+00  0.00000000E+00
  0.00000000E+00  0.00000000E+00  0.00000000E+00
  0.00000000E+00  0.00000000E+00  0.00000000E+00
  0.00000000E+00  0.00000000E+00  0.00000000E+00
  0.00000000E+00  0.00000000E+00  0.00000000E+00
  0.00000000E+00  0.00000000E+00  0.00000000E+00
  0.00000000E+00  0.00000000E+00  0.00000000E+00
  0.00000000E+00  0.00000000E+00  0.00000000E+00
  0.00000000E+00  0.00000000E+00  0.00000000E+00
  0.00000000E+00  0.00000000E+00  0.00000000E+00
  0.00000000E+00  0.00000000E+00  0.00000000E+00
  0.00000000E+00  0.00000000E+00  0.00000000E+00
  0.00000000E+00  0.00000000E+00  0.00000000E+00
  0.00000000E+00  0.00000000E+00  0.00000000E+00
  0.00000000E+00  0.00000000E+00  0.00000000E+00
  0.00000000E+00  0.00000000E+00  0.00000000E+00
  0.00000000E+00  0.00000000E+00  0.00000000E+00
  0.00000000E+00  0.00000000E+00  0.00000000E+00
  0.00000000E+00  0.00000000E+00  0.00000000E+00
  0.00000000E+00  0.00000000E+00  0.00000000E+00
  0.00000000E+00  0.00000000E+00  0.00000000E+00
