O4Pd3Tl1   [FCC,FCC,cF64] (STD_PRIM doi:
   1.22474500000000     
     0.0000000000000000    3.9842232855389326    3.9842232855389326
     3.9842232855389326   -0.0000000000000000    3.9842232855389326
     3.9842232855389326    3.9842232855389326   -0.0000000000000000
   8   6   2
Direct
  0.1413929287115932  0.1413929287115932  0.1413929287115932
  0.5758212138652345  0.1413929287115932  0.1413929287115932
  0.1413929287115932  0.1413929287115932  0.5758212138652345
  0.1413929287115932  0.5758212138652345  0.1413929287115932
  0.4241787861347655  0.8586070712884067  0.8586070712884067
  0.8586070712884067  0.8586070712884067  0.8586070712884067
  0.8586070712884067  0.8586070712884067  0.4241787861347655
  0.8586070712884067  0.4241787861347655  0.8586070712884067
  0.5000000000000000 -0.0000000000000000  0.0000000000000000
 -0.0000000000000000  0.5000000000000000  0.5000000000000000
 -0.0000000000000000  0.5000000000000000  0.0000000000000000
  0.5000000000000000  0.0000000000000000  0.5000000000000000
 -0.0000000000000000  0.0000000000000000  0.5000000000000000
  0.5000000000000000  0.5000000000000000 -0.0000000000000000
  0.0000000000000000 -0.0000000000000000  0.0000000000000000
  0.5000000000000000  0.5000000000000000  0.5000000000000000
 
  0.00000000E+00  0.00000000E+00  0.00000000E+00
  0.00000000E+00  0.00000000E+00  0.00000000E+00
  0.00000000E+00  0.00000000E+00  0.00000000E+00
  0.00000000E+00  0.00000000E+00  0.00000000E+00
  0.00000000E+00  0.00000000E+00  0.00000000E+00
  0.00000000E+00  0.00000000E+00  0.00000000E+00
  0.00000000E+00  0.00000000E+00  0.00000000E+00
  0.00000000E+00  0.00000000E+00  0.00000000E+00
  0.00000000E+00  0.00000000E+00  0.00000000E+00
  0.00000000E+00  0.00000000E+00  0.00000000E+00
  0.00000000E+00  0.00000000E+00  0.00000000E+00
  0.00000000E+00  0.00000000E+00  0.00000000E+00
  0.00000000E+00  0.00000000E+00  0.00000000E+00
  0.00000000E+00  0.00000000E+00  0.00000000E+00
  0.00000000E+00  0.00000000E+00  0.00000000E+00
  0.00000000E+00  0.00000000E+00  0.00000000E+00
