Ge1Ho1Sn1   [ORCC,ORCC,oS12] (STD_PRIM d
   1.00000000000000     
     2.1523507993304825   -8.1471379932689203    0.0000000000000000
     2.1523507993304825    8.1471379932689203    0.0000000000000000
     0.0000000000000000   -0.0000000000000000    4.0966700619224916
   2   2   2
Direct
  0.5540100728254125  0.4459899271745875  0.7500000000000000
  0.4459899271745875  0.5540100728254125  0.2500000000000000
  0.9064048735161402  0.0935951264838597  0.7500000000000000
  0.0935951264838597  0.9064048735161402  0.2500000000000000
  0.2555441435710784  0.7444558564289216  0.7500000000000000
  0.7444558564289216  0.2555441435710784  0.2500000000000000
 
  0.00000000E+00  0.00000000E+00  0.00000000E+00
  0.00000000E+00  0.00000000E+00  0.00000000E+00
  0.00000000E+00  0.00000000E+00  0.00000000E+00
  0.00000000E+00  0.00000000E+00  0.00000000E+00
  0.00000000E+00  0.00000000E+00  0.00000000E+00
  0.00000000E+00  0.00000000E+00  0.00000000E+00
