Hf2Hg1 #139 - (Hf2Hg1_ICSD_638564) - Hf2
    1.000000000000000     
    -1.6680424787776080    1.6680424787776080    5.8890017049353913
     1.6680424787776080   -1.6680424787776080    5.8890017049353913
     1.6680424787776080    1.6680424787776080   -5.8890017049353913
   2   1
Direct
  0.6663616619874262  0.6663616619874262  0.0000000000000000
  0.3336383380125738  0.3336383380125738  0.0000000000000000
  0.0000000000000000  0.0000000000000000  0.0000000000000000
 
  0.00000000E+00  0.00000000E+00  0.00000000E+00
  0.00000000E+00  0.00000000E+00  0.00000000E+00
  0.00000000E+00  0.00000000E+00  0.00000000E+00
