Ge2Th1   [BCT,BCT2,tI12] (STD_PRIM doi:1
   1.00000000000000     
    -2.0664634820259846    2.0664634820259846    8.5065916312322436
     2.0664634820259846   -2.0664634820259846    8.5065916312322436
     2.0664634820259846    2.0664634820259846   -8.5065916312322436
   4   2
Direct
  0.4193641961086995  0.4193641961086995 -0.0000000000000000
  0.6693641961086996  0.1693641961086995  0.5000000000000000
  0.8306358038913004  0.3306358038913005  0.5000000000000000
  0.5806358038913004  0.5806358038913004 -0.0000000000000000
 -0.0000000000000000  0.0000000000000000 -0.0000000000000000
  0.2500000000000000  0.7500000000000000  0.5000000000000000
 
  0.00000000E+00  0.00000000E+00  0.00000000E+00
  0.00000000E+00  0.00000000E+00  0.00000000E+00
  0.00000000E+00  0.00000000E+00  0.00000000E+00
  0.00000000E+00  0.00000000E+00  0.00000000E+00
  0.00000000E+00  0.00000000E+00  0.00000000E+00
  0.00000000E+00  0.00000000E+00  0.00000000E+00
