As2Ba1Rh2 #139 - (As2Ba1Rh2_ICSD_165121)
    1.000000000000000     
    -2.0361946391103616    2.0361946391103616    6.4866343582851007
     2.0361946391103616   -2.0361946391103616    6.4866343582851007
     2.0361946391103616    2.0361946391103616   -6.4866343582851007
   2   1   2
Direct
  0.6434241563402381  0.6434241563402381  0.0000000000000000
  0.3565758436597619  0.3565758436597619  0.0000000000000000
  0.0000000000000000  0.0000000000000000  0.0000000000000000
  0.2500000000000000  0.7500000000000000  0.5000000000000000
  0.7500000000000000  0.2500000000000000  0.5000000000000000
 
  0.00000000E+00  0.00000000E+00  0.00000000E+00
  0.00000000E+00  0.00000000E+00  0.00000000E+00
  0.00000000E+00  0.00000000E+00  0.00000000E+00
  0.00000000E+00  0.00000000E+00  0.00000000E+00
  0.00000000E+00  0.00000000E+00  0.00000000E+00
