Ag1Hf2 #139 - (Ag1Hf2_ICSD_163152) - Ag1
   1.00000000000000     
    -1.6048568867776249    1.6048568867776249    6.0598769665088481
     1.6048568867776249   -1.6048568867776249    6.0598769665088481
     1.6048568867776249    1.6048568867776249   -6.0598769665088481
   1   2
Direct
  0.0000000000000000  0.0000000000000000  0.0000000000000000
  0.6667395589551808  0.6667395589551808  0.0000000000000000
  0.3332604410448193  0.3332604410448193  0.0000000000000000
 
  0.00000000E+00  0.00000000E+00  0.00000000E+00
  0.00000000E+00  0.00000000E+00  0.00000000E+00
  0.00000000E+00  0.00000000E+00  0.00000000E+00
