C1Er5Ge3 #193 - (C1Er5Ge3_ICSD_617665) -
   1.00000000000000     
     4.2085768582108987   -7.2895619494852815    0.0000000000000000
     4.2085768582108987    7.2895619494852815    0.0000000000000000
     0.0000000000000000    0.0000000000000000    6.3819431906834749
   2  10   6
Direct
 -0.0000000000000000 -0.0000000000000000  0.0000000000000000
  0.0000000000000000  0.0000000000000000  0.5000000000000000
  0.3333284835980043  0.6666715164019957 -0.0000000000000000
  0.6666715164019957  0.3333284835980043  0.5000000000000000
  0.6666715164019957  0.3333284835980043  0.0000000000000000
  0.3333284835980043  0.6666715164019957  0.5000000000000000
  0.2209354404904127 -0.0000000264569197  0.2500000000000000
 -0.0000000264569197  0.2209354404904127  0.2500000000000000
  0.7790647766377468  0.7790647766377468  0.2500000000000000
  0.7790645595095873  0.0000000264569197  0.7500000000000000
  0.0000000264569197  0.7790645595095873  0.7500000000000000
  0.2209352233622532  0.2209352233622532  0.7500000000000000
  0.5907577705899106 -0.0000028250576637  0.2500000000000000
 -0.0000028250576637  0.5907577705899106  0.2500000000000000
  0.4092395028917316  0.4092395028917316  0.2500000000000000
  0.4092422294100894  0.0000028250576636  0.7500000000000000
  0.0000028250576636  0.4092422294100894  0.7500000000000000
  0.5907604971082685  0.5907604971082685  0.7500000000000000
 
  0.00000000E+00  0.00000000E+00  0.00000000E+00
  0.00000000E+00  0.00000000E+00  0.00000000E+00
  0.00000000E+00  0.00000000E+00  0.00000000E+00
  0.00000000E+00  0.00000000E+00  0.00000000E+00
  0.00000000E+00  0.00000000E+00  0.00000000E+00
  0.00000000E+00  0.00000000E+00  0.00000000E+00
  0.00000000E+00  0.00000000E+00  0.00000000E+00
  0.00000000E+00  0.00000000E+00  0.00000000E+00
  0.00000000E+00  0.00000000E+00  0.00000000E+00
  0.00000000E+00  0.00000000E+00  0.00000000E+00
  0.00000000E+00  0.00000000E+00  0.00000000E+00
  0.00000000E+00  0.00000000E+00  0.00000000E+00
  0.00000000E+00  0.00000000E+00  0.00000000E+00
  0.00000000E+00  0.00000000E+00  0.00000000E+00
  0.00000000E+00  0.00000000E+00  0.00000000E+00
  0.00000000E+00  0.00000000E+00  0.00000000E+00
  0.00000000E+00  0.00000000E+00  0.00000000E+00
  0.00000000E+00  0.00000000E+00  0.00000000E+00
