Sn2Y1   [ORCC,ORCC,oS12] (STD_PRIM doi:1
   1.00000000000000     
     2.2326936299063398   -8.3040750507506580    0.0000000000000000
     2.2326936299063398    8.3040750507506580    0.0000000000000000
     0.0000000000000000   -0.0000000000000000    4.4024412328947635
   4   2
Direct
  0.4367676570873415  0.5632323429126586  0.7500000000000000
  0.5632323429126586  0.4367676570873415  0.2500000000000000
  0.7486059990405592  0.2513940009594408  0.7500000000000000
  0.2513940009594408  0.7486059990405592  0.2500000000000000
  0.0993152891145143  0.9006847108854856  0.7500000000000000
  0.9006847108854856  0.0993152891145143  0.2500000000000000
 
  0.00000000E+00  0.00000000E+00  0.00000000E+00
  0.00000000E+00  0.00000000E+00  0.00000000E+00
  0.00000000E+00  0.00000000E+00  0.00000000E+00
  0.00000000E+00  0.00000000E+00  0.00000000E+00
  0.00000000E+00  0.00000000E+00  0.00000000E+00
  0.00000000E+00  0.00000000E+00  0.00000000E+00
