Mn2Te4Zn1   [FCC,FCC,cF56] (STD_PRIM doi
   1.22474500000000     
     0.0000000000000000    4.7835835751020150    4.7835835751020150
     4.7835835751020150   -0.0000000000000000    4.7835835751020150
     4.7835835751020150    4.7835835751020150    0.0000000000000000
   4   8   2
Direct
  0.0000000000000000  0.0000000000000000  0.0000000000000000
  0.5000000000000000 -0.0000000000000000  0.5000000000000000
  0.0000000000000000  0.5000000000000000  0.5000000000000000
 -0.0000000000000000  0.0000000000000000  0.5000000000000000
  0.2440976424987672  0.2440976424987672  0.2677070725037056
  0.7677070725037056  0.2440976424987672  0.7440976424987671
  0.2440976424987672  0.7677070725037056  0.7440976424987671
  0.2440976424987672  0.2440976424987672  0.7440976424987671
  0.2322929274962944  0.7559023575012329  0.2559023575012329
  0.7559023575012329  0.7559023575012329  0.7322929274962944
  0.7559023575012329  0.2322929274962944  0.2559023575012329
  0.7559023575012329  0.7559023575012329  0.2559023575012329
  0.3750000000000000  0.3750000000000000  0.8750000000000000
  0.6250000000000000  0.6250000000000000  0.1250000000000000
 
  0.00000000E+00  0.00000000E+00  0.00000000E+00
  0.00000000E+00  0.00000000E+00  0.00000000E+00
  0.00000000E+00  0.00000000E+00  0.00000000E+00
  0.00000000E+00  0.00000000E+00  0.00000000E+00
  0.00000000E+00  0.00000000E+00  0.00000000E+00
  0.00000000E+00  0.00000000E+00  0.00000000E+00
  0.00000000E+00  0.00000000E+00  0.00000000E+00
  0.00000000E+00  0.00000000E+00  0.00000000E+00
  0.00000000E+00  0.00000000E+00  0.00000000E+00
  0.00000000E+00  0.00000000E+00  0.00000000E+00
  0.00000000E+00  0.00000000E+00  0.00000000E+00
  0.00000000E+00  0.00000000E+00  0.00000000E+00
  0.00000000E+00  0.00000000E+00  0.00000000E+00
  0.00000000E+00  0.00000000E+00  0.00000000E+00
