Ge2La1Pt2   [BCT,BCT2,tI10] (STD_PRIM do
   1.00000000000000     
    -2.2273835677433280    2.2273835677433280    5.0300346201589745
     2.2273835677433280   -2.2273835677433280    5.0300346201589745
     2.2273835677433280    2.2273835677433280   -5.0300346201589745
   2   1   2
Direct
  0.6284655877937624  0.6284655877937624  0.0000000000000000
  0.3715344122062377  0.3715344122062377  0.0000000000000000
 -0.0000000000000000 -0.0000000000000000 -0.0000000000000000
  0.2500000000000000  0.7500000000000000  0.5000000000000000
  0.7500000000000000  0.2500000000000000  0.5000000000000000
 
  0.00000000E+00  0.00000000E+00  0.00000000E+00
  0.00000000E+00  0.00000000E+00  0.00000000E+00
  0.00000000E+00  0.00000000E+00  0.00000000E+00
  0.00000000E+00  0.00000000E+00  0.00000000E+00
  0.00000000E+00  0.00000000E+00  0.00000000E+00
