C1   [ORCC,ORCC,oS16] (STD_PRIM doi:10.1
   1.00000000000000     
     2.1273654169624154   -4.3845849580705236    0.0000000000000000
     2.1273654169624154    4.3845849580705236    0.0000000000000000
     0.0000000000000000    0.0000000000000000    2.5140530215129528
   8
Direct
  0.0185889515214093  0.3517980886742722  0.0000000000000000
  0.9814110484785978  0.6482019113257278  0.0000000000000000
  0.3517980886742722  0.0185889515214093  0.0000000000000000
  0.6482019113257278  0.9814110484785978  0.0000000000000000
  0.7736456385359624  0.5952931254234171  0.5000000000000000
  0.2263543614640376  0.4047068745765829  0.5000000000000000
  0.5952931254234171  0.7736456385359624  0.5000000000000000
  0.4047068745765829  0.2263543614640376  0.5000000000000000
 
  0.00000000E+00  0.00000000E+00  0.00000000E+00
  0.00000000E+00  0.00000000E+00  0.00000000E+00
  0.00000000E+00  0.00000000E+00  0.00000000E+00
  0.00000000E+00  0.00000000E+00  0.00000000E+00
  0.00000000E+00  0.00000000E+00  0.00000000E+00
  0.00000000E+00  0.00000000E+00  0.00000000E+00
  0.00000000E+00  0.00000000E+00  0.00000000E+00
  0.00000000E+00  0.00000000E+00  0.00000000E+00
