Ba1Ce1O3   [ORC,ORC,oP20] (STD_PRIM doi:
   1.00000000000000     
     6.3185409891990743    0.0000000000000000    0.0000000000000000
     0.0000000000000000    6.3202713075818506    0.0000000000000000
     0.0000000000000000    0.0000000000000000    8.9094096746998623
   4   4  12
Direct
  0.9774551173694361  0.9913749755148684  0.2500000000000000
  0.5225448826305639  0.4913749755148684  0.7500000000000000
  0.0225448826305638  0.0086250244851316  0.7500000000000000
  0.4774551173694362  0.5086250244851316  0.2500000000000000
  0.0000000000000000  0.5000000000000000  0.0000000000000000
  0.5000000000000000  0.0000000000000000  0.0000000000000000
  0.0000000000000000  0.5000000000000000  0.5000000000000000
  0.5000000000000000  0.0000000000000000  0.5000000000000000
  0.5181905641845883  0.0813999378098662  0.2500000000000000
  0.9818094358154117  0.5813999378098662  0.7500000000000000
  0.4818094358154117  0.9186000621901338  0.7500000000000000
  0.0181905641845883  0.4186000621901338  0.2500000000000000
  0.7207870399872268  0.7213104208095843  0.0445146592865578
  0.7792129600127732  0.2213104208095772  0.9554853407134422
  0.2792129600127732  0.2786895791904228  0.5445146592865578
  0.2207870399872268  0.7786895791904157  0.4554853407134422
  0.2792129600127732  0.2786895791904228  0.9554853407134422
  0.2207870399872268  0.7786895791904157  0.0445146592865578
  0.7207870399872268  0.7213104208095843  0.4554853407134422
  0.7792129600127732  0.2213104208095772  0.5445146592865578
 
  0.00000000E+00  0.00000000E+00  0.00000000E+00
  0.00000000E+00  0.00000000E+00  0.00000000E+00
  0.00000000E+00  0.00000000E+00  0.00000000E+00
  0.00000000E+00  0.00000000E+00  0.00000000E+00
  0.00000000E+00  0.00000000E+00  0.00000000E+00
  0.00000000E+00  0.00000000E+00  0.00000000E+00
  0.00000000E+00  0.00000000E+00  0.00000000E+00
  0.00000000E+00  0.00000000E+00  0.00000000E+00
  0.00000000E+00  0.00000000E+00  0.00000000E+00
  0.00000000E+00  0.00000000E+00  0.00000000E+00
  0.00000000E+00  0.00000000E+00  0.00000000E+00
  0.00000000E+00  0.00000000E+00  0.00000000E+00
  0.00000000E+00  0.00000000E+00  0.00000000E+00
  0.00000000E+00  0.00000000E+00  0.00000000E+00
  0.00000000E+00  0.00000000E+00  0.00000000E+00
  0.00000000E+00  0.00000000E+00  0.00000000E+00
  0.00000000E+00  0.00000000E+00  0.00000000E+00
  0.00000000E+00  0.00000000E+00  0.00000000E+00
  0.00000000E+00  0.00000000E+00  0.00000000E+00
  0.00000000E+00  0.00000000E+00  0.00000000E+00
