B1V1   [ORCC,ORCC,oS8] (STD_PRIM doi:10.
   1.00000000000000     
     1.5387520144850280   -4.0499123618964319    0.0000000000000000
     1.5387520144850280    4.0499123618964319   -0.0000000000000000
     0.0000000000000000    0.0000000000000000    2.9875812503407557
   2   2
Direct
  0.5615999586158766  0.4384000413841234  0.7500000000000000
  0.4384000413841234  0.5615999586158766  0.2500000000000000
  0.8520703155914867  0.1479296844085133  0.7500000000000000
  0.1479296844085133  0.8520703155914867  0.2500000000000000
 
  0.00000000E+00  0.00000000E+00  0.00000000E+00
  0.00000000E+00  0.00000000E+00  0.00000000E+00
  0.00000000E+00  0.00000000E+00  0.00000000E+00
  0.00000000E+00  0.00000000E+00  0.00000000E+00
