Be13Ho1   [FCC,FCC,cF112] (STD_PRIM doi:
   1.22474500000000     
    -0.0000000000000000    4.1498702390686653    4.1498702390686653
     4.1498702390686653    0.0000000000000000    4.1498702390686653
     4.1498702390686653    4.1498702390686653    0.0000000000000000
  26   2
Direct
  0.0000000000000000  0.0000000000000000 -0.0000000000000000
  0.5000000000000000  0.5000000000000000  0.5000000000000000
  0.7093982078333739  0.0625786212179480  0.2906017921666260
  0.9374213787820519  0.2906017921666260  0.0625786212179480
  0.0625786212179480  0.7093982078333739  0.9374213787820519
  0.2906017921666260  0.9374213787820519  0.7093982078333739
  0.7093982078333739  0.2906017921666260  0.9374213787820519
  0.9374213787820519  0.0625786212179480  0.7093982078333739
  0.0625786212179480  0.9374213787820519  0.2906017921666260
  0.2906017921666260  0.7093982078333739  0.0625786212179480
  0.7093982078333739  0.9374213787820519  0.0625786212179480
  0.9374213787820519  0.7093982078333739  0.2906017921666260
  0.0625786212179480  0.2906017921666260  0.7093982078333739
  0.2906017921666260  0.0625786212179480  0.9374213787820519
  0.5625786212179481  0.4374213787820520  0.2093982078333740
  0.7906017921666261  0.2093982078333740  0.4374213787820520
  0.2093982078333740  0.7906017921666261  0.5625786212179481
  0.4374213787820520  0.5625786212179481  0.7906017921666261
  0.4374213787820520  0.2093982078333740  0.5625786212179481
  0.2093982078333740  0.4374213787820520  0.7906017921666261
  0.7906017921666261  0.5625786212179481  0.2093982078333740
  0.5625786212179481  0.7906017921666261  0.4374213787820520
  0.2093982078333740  0.5625786212179481  0.4374213787820520
  0.4374213787820520  0.7906017921666261  0.2093982078333740
  0.5625786212179481  0.2093982078333740  0.7906017921666261
  0.7906017921666261  0.4374213787820520  0.5625786212179481
  0.2500000000000000  0.2500000000000000  0.2500000000000000
  0.7500000000000000  0.7500000000000000  0.7500000000000000
 
  0.00000000E+00  0.00000000E+00  0.00000000E+00
  0.00000000E+00  0.00000000E+00  0.00000000E+00
  0.00000000E+00  0.00000000E+00  0.00000000E+00
  0.00000000E+00  0.00000000E+00  0.00000000E+00
  0.00000000E+00  0.00000000E+00  0.00000000E+00
  0.00000000E+00  0.00000000E+00  0.00000000E+00
  0.00000000E+00  0.00000000E+00  0.00000000E+00
  0.00000000E+00  0.00000000E+00  0.00000000E+00
  0.00000000E+00  0.00000000E+00  0.00000000E+00
  0.00000000E+00  0.00000000E+00  0.00000000E+00
  0.00000000E+00  0.00000000E+00  0.00000000E+00
  0.00000000E+00  0.00000000E+00  0.00000000E+00
  0.00000000E+00  0.00000000E+00  0.00000000E+00
  0.00000000E+00  0.00000000E+00  0.00000000E+00
  0.00000000E+00  0.00000000E+00  0.00000000E+00
  0.00000000E+00  0.00000000E+00  0.00000000E+00
  0.00000000E+00  0.00000000E+00  0.00000000E+00
  0.00000000E+00  0.00000000E+00  0.00000000E+00
  0.00000000E+00  0.00000000E+00  0.00000000E+00
  0.00000000E+00  0.00000000E+00  0.00000000E+00
  0.00000000E+00  0.00000000E+00  0.00000000E+00
  0.00000000E+00  0.00000000E+00  0.00000000E+00
  0.00000000E+00  0.00000000E+00  0.00000000E+00
  0.00000000E+00  0.00000000E+00  0.00000000E+00
  0.00000000E+00  0.00000000E+00  0.00000000E+00
  0.00000000E+00  0.00000000E+00  0.00000000E+00
  0.00000000E+00  0.00000000E+00  0.00000000E+00
  0.00000000E+00  0.00000000E+00  0.00000000E+00
