In1Pd3   [BCT,BCT2,tI8] (STD_PRIM doi:10
   1.00000000000000     
    -2.0707629715039477    2.0707629715039477    3.7767082580718787
     2.0707629715039477   -2.0707629715039477    3.7767082580718787
     2.0707629715039477    2.0707629715039477   -3.7767082580718787
   1   3
Direct
  0.0000000000000000  0.0000000000000000  0.0000000000000000
  0.5000000000000000  0.5000000000000000  0.0000000000000000
  0.7500000000000000  0.2500000000000000  0.5000000000000000
  0.2500000000000000  0.7500000000000000  0.5000000000000000
 
  0.00000000E+00  0.00000000E+00  0.00000000E+00
  0.00000000E+00  0.00000000E+00  0.00000000E+00
  0.00000000E+00  0.00000000E+00  0.00000000E+00
  0.00000000E+00  0.00000000E+00  0.00000000E+00
