Br1Tl1   [ORCC,ORCC,oS8] (STD_PRIM doi:1
   1.00000000000000     
     2.2300197756582905   -6.3108507831891334    0.0000000000000000
     2.2300197756582905    6.3108507831891334   -0.0000000000000000
     0.0000000000000000   -0.0000000000000000    5.0491767161493897
   2   2
Direct
  0.1326116218217160  0.8673883781782840  0.7500000000000000
  0.8673883781782840  0.1326116218217160  0.2500000000000000
  0.3855096610788190  0.6144903389211811  0.7500000000000000
  0.6144903389211811  0.3855096610788190  0.2500000000000000
 
  0.00000000E+00  0.00000000E+00  0.00000000E+00
  0.00000000E+00  0.00000000E+00  0.00000000E+00
  0.00000000E+00  0.00000000E+00  0.00000000E+00
  0.00000000E+00  0.00000000E+00  0.00000000E+00
