Cu1I1   [FCC,FCC,cF8] (STD_PRIM doi:10.1
   1.22474500000000     
     0.0000000000000000    2.4853785876660961    2.4853785876660961
     2.4853785876660961    0.0000000000000000    2.4853785876660961
     2.4853785876660961    2.4853785876660961    0.0000000000000000
   1   1
Direct
  0.2500000000000000  0.2500000000000000  0.2500000000000000
  0.0000000000000000  0.0000000000000000  0.0000000000000000
 
  0.00000000E+00  0.00000000E+00  0.00000000E+00
  0.00000000E+00  0.00000000E+00  0.00000000E+00
