Mg2Tb1   [HEX,HEX,hP12] (STD_PRIM doi:10
   1.00000000000000     
     3.0317349685451718   -5.2511190006034685    0.0000000000000000
     3.0312766875160362    5.2508544119279339   -0.0000000000000000
     0.0000000000000000   -0.0000000000000000    9.7998953262341271
   8   4
Direct
 -0.0000000000000000 -0.0000000000000000 -0.0000000000000000
  0.0000000000000000  0.0000000000000000  0.5000000000000000
  0.6582100890956163  0.8291178914775171  0.2500000000000000
  0.1709078023819079  0.8291178914775171  0.2500000000000000
  0.1708917952565907  0.3417835905131885  0.2500000000000000
  0.3417899109043837  0.1708821085224829  0.7500000000000000
  0.8290921976180922  0.1708821085224829  0.7500000000000000
  0.8291082047434094  0.6582164094868116  0.7500000000000000
  0.6666868263308962  0.3333736526617923  0.0637619960312895
  0.3333131736691039  0.6666263473382078  0.5637619960312895
  0.3333131736691039  0.6666263473382078  0.9362380039687105
  0.6666868263308962  0.3333736526617923  0.4362380039687105
 
  0.00000000E+00  0.00000000E+00  0.00000000E+00
  0.00000000E+00  0.00000000E+00  0.00000000E+00
  0.00000000E+00  0.00000000E+00  0.00000000E+00
  0.00000000E+00  0.00000000E+00  0.00000000E+00
  0.00000000E+00  0.00000000E+00  0.00000000E+00
  0.00000000E+00  0.00000000E+00  0.00000000E+00
  0.00000000E+00  0.00000000E+00  0.00000000E+00
  0.00000000E+00  0.00000000E+00  0.00000000E+00
  0.00000000E+00  0.00000000E+00  0.00000000E+00
  0.00000000E+00  0.00000000E+00  0.00000000E+00
  0.00000000E+00  0.00000000E+00  0.00000000E+00
  0.00000000E+00  0.00000000E+00  0.00000000E+00
