S1Zn1   [HEX,HEX,hP16] (STD_PRIM doi:10.
   1.00000000000000     
     1.8984201290237426   -3.2881601175805901    0.0000000000000000
     1.8984281673317647    3.2881647584998910   -0.0000016666576771
    -0.0000107774176904   -0.0000062223450047   24.8511846314199296
   8   8
Direct
  0.0000072284743279  0.0000144569486558  0.0937648170692772
  0.6666819866041312  0.3333639732082554  0.2187243129148270
  0.3333182937245525  0.6666365874490978  0.3438167659085614
  0.6666909345863706  0.3333818691727482  0.4687649692332467
  0.9999928167361497  0.9999856334723064  0.5937258368433762
  0.3333081868831659  0.6666163737663390  0.7187753269455227
  0.9999918524194975  0.9999837048390020  0.8437688468595913
  0.3333082462894866  0.6666164925789732  0.9688123125804332
  0.9999926950421099  0.9999853900842195  0.0000341192969489
  0.6666923808293854  0.3333847616587709  0.1250414728488703
  0.3333166197604205  0.6666332395208410  0.2500330597758050
  0.6666833734008712  0.3333667468017355  0.3750190097163180
  0.0000074845643865  0.0000149691287731  0.5000261949050958
  0.3333074936092063  0.6666149872184196  0.6250417948498057
  0.9999928322016104  0.9999856644032208  0.7500291113976657
  0.3333075748743305  0.6666151497486610  0.8750220488546753
 
  0.00000000E+00  0.00000000E+00  0.00000000E+00
  0.00000000E+00  0.00000000E+00  0.00000000E+00
  0.00000000E+00  0.00000000E+00  0.00000000E+00
  0.00000000E+00  0.00000000E+00  0.00000000E+00
  0.00000000E+00  0.00000000E+00  0.00000000E+00
  0.00000000E+00  0.00000000E+00  0.00000000E+00
  0.00000000E+00  0.00000000E+00  0.00000000E+00
  0.00000000E+00  0.00000000E+00  0.00000000E+00
  0.00000000E+00  0.00000000E+00  0.00000000E+00
  0.00000000E+00  0.00000000E+00  0.00000000E+00
  0.00000000E+00  0.00000000E+00  0.00000000E+00
  0.00000000E+00  0.00000000E+00  0.00000000E+00
  0.00000000E+00  0.00000000E+00  0.00000000E+00
  0.00000000E+00  0.00000000E+00  0.00000000E+00
  0.00000000E+00  0.00000000E+00  0.00000000E+00
  0.00000000E+00  0.00000000E+00  0.00000000E+00
