Br6Cs2Sn1   [FCC,FCC,cF36] (STD_PRIM doi
   1.22474500000000     
    -0.0000000000000000    4.6012804035489401    4.6012804035489401
     4.6012804035489401    0.0000000000000000    4.6012804035489401
     4.6012804035489401    4.6012804035489401    0.0000000000000000
   6   2   1
Direct
  0.7618431839501264  0.2381568160498736  0.7618431839501264
  0.2381568160498736  0.7618431839501264  0.2381568160498736
  0.2381568160498736  0.2381568160498736  0.7618431839501264
  0.7618431839501264  0.7618431839501264  0.2381568160498736
  0.2381568160498736  0.7618431839501264  0.7618431839501264
  0.7618431839501264  0.2381568160498736  0.2381568160498736
  0.2500000000000000  0.2500000000000000  0.2500000000000000
  0.7500000000000000  0.7500000000000000  0.7500000000000000
  0.0000000000000000  0.0000000000000000 -0.0000000000000000
 
  0.00000000E+00  0.00000000E+00  0.00000000E+00
  0.00000000E+00  0.00000000E+00  0.00000000E+00
  0.00000000E+00  0.00000000E+00  0.00000000E+00
  0.00000000E+00  0.00000000E+00  0.00000000E+00
  0.00000000E+00  0.00000000E+00  0.00000000E+00
  0.00000000E+00  0.00000000E+00  0.00000000E+00
  0.00000000E+00  0.00000000E+00  0.00000000E+00
  0.00000000E+00  0.00000000E+00  0.00000000E+00
  0.00000000E+00  0.00000000E+00  0.00000000E+00
