Ce2N2Se1 #164 - (Ce2N2Se1_ICSD_421995) -
    1.000000000000000     
     1.9752812344629906   -3.4212877462302593    0.0000000794207986
     1.9752812344629906    3.4212877462302593   -0.0000000794207986
     0.0000000000000000   -0.0000015627166318    7.0270622808857706
   2   2   1
Direct
  0.3333327368557304  0.6666672631442696  0.2974856194801910
  0.6666672631442696  0.3333327368557304  0.7025143805198090
  0.3333333485449685  0.6666666514550315  0.6273646686955560
  0.6666666514550315  0.3333333485449685  0.3726353313044440
  0.0000000000000000  0.0000000000000000  0.0000000000000000
 
  0.00000000E+00  0.00000000E+00  0.00000000E+00
  0.00000000E+00  0.00000000E+00  0.00000000E+00
  0.00000000E+00  0.00000000E+00  0.00000000E+00
  0.00000000E+00  0.00000000E+00  0.00000000E+00
  0.00000000E+00  0.00000000E+00  0.00000000E+00
