Se1Tl1   [BCT,BCT1,tI16] (STD_PRIM doi:1
   1.00000000000000     
    -4.1089939482198767    4.1089939482198767    3.5661050221765547
     4.1089939482198767   -4.1089939482198767    3.5661050221765547
     4.1089939482198767    4.1089939482198767   -3.5661050221765547
   4   4
Direct
  0.8222124954147674  0.3222124954147674  0.1444249908295419
  0.1777875045852326  0.6777875045852326  0.8555750091704581
  0.6777875045852255  0.8222124954147674  0.5000000000000000
  0.3222124954147745  0.1777875045852326  0.5000000000000000
  0.7500000000000000  0.7500000000000000  0.0000000000000000
  0.2500000000000000  0.2500000000000000  0.0000000000000000
  0.7500000000000000  0.2500000000000000  0.5000000000000000
  0.2500000000000000  0.7500000000000000  0.5000000000000000
 
  0.00000000E+00  0.00000000E+00  0.00000000E+00
  0.00000000E+00  0.00000000E+00  0.00000000E+00
  0.00000000E+00  0.00000000E+00  0.00000000E+00
  0.00000000E+00  0.00000000E+00  0.00000000E+00
  0.00000000E+00  0.00000000E+00  0.00000000E+00
  0.00000000E+00  0.00000000E+00  0.00000000E+00
  0.00000000E+00  0.00000000E+00  0.00000000E+00
  0.00000000E+00  0.00000000E+00  0.00000000E+00
