Ca1N2   [BCT,BCT2,tI6] (STD_PRIM doi:10.
   1.00000000000000     
    -1.8116235350721419    1.8116235350721419    2.9865812154468765
     1.8116235350721419   -1.8116235350721419    2.9865812154468765
     1.8116235350721419    1.8116235350721419   -2.9865812154468765
   1   2
Direct
 -0.0000000000000000  0.0000000000000000  0.0000000000000000
  0.3948816641490560  0.3948816641490560  0.0000000000000000
  0.6051183358509440  0.6051183358509440  0.0000000000000000
 
  0.00000000E+00  0.00000000E+00  0.00000000E+00
  0.00000000E+00  0.00000000E+00  0.00000000E+00
  0.00000000E+00  0.00000000E+00  0.00000000E+00
