Cu9In4   [CUB,CUB,cP52] (STD_PRIM doi:10
   1.00000000000000     
     9.1884003113894579   -0.0000000000000000   -0.0000000000000000
    -0.0000000000000000    9.1884003113894579    0.0000000000000000
    -0.0000000000000000    0.0000000000000000    9.1884003113894579
  36  16
Direct
  0.3302237243264415  0.3302237243264415  0.3302237243264415
  0.6697762756735584  0.6697762756735584  0.3302237243264415
  0.6697762756735584  0.3302237243264415  0.6697762756735584
  0.3302237243264415  0.6697762756735584  0.6697762756735584
  0.5980390659531371  0.5980390659531371  0.5980390659531371
  0.4019609340468559  0.4019609340468559  0.5980390659531371
  0.4019609340468559  0.5980390659531371  0.4019609340468559
  0.5980390659531371  0.4019609340468559  0.4019609340468559
  0.8328281946121662  0.8328281946121662  0.8328281946121662
  0.1671718053878337  0.1671718053878337  0.8328281946121662
  0.1671718053878337  0.8328281946121662  0.1671718053878337
  0.8328281946121662  0.1671718053878337  0.1671718053878337
  0.3575976177715647 -0.0000000000000000  0.0000000000000000
  0.6424023822284353  0.0000000000000000 -0.0000000000000000
  0.0000000000000000  0.3575976177715647  0.0000000000000000
 -0.0000000000000000  0.6424023822284353 -0.0000000000000000
 -0.0000000000000000 -0.0000000000000000  0.3575976177715647
  0.0000000000000000  0.0000000000000000  0.6424023822284353
  0.8537474805343657  0.5000000000000000  0.5000000000000000
  0.1462525194656345  0.5000000000000000  0.5000000000000000
  0.5000000000000000  0.8537474805343657  0.5000000000000000
  0.5000000000000000  0.1462525194656345  0.5000000000000000
  0.5000000000000000  0.5000000000000000  0.8537474805343657
  0.5000000000000000  0.5000000000000000  0.1462525194656345
  0.3238378658001302  0.3238378658001302  0.0297575149561888
  0.6761621341998698  0.6761621341998698  0.0297575149561888
  0.6761621341998698  0.3238378658001302  0.9702424850438113
  0.3238378658001302  0.6761621341998698  0.9702424850438113
  0.0297575149561888  0.3238378658001302  0.3238378658001302
  0.0297575149561888  0.6761621341998698  0.6761621341998698
  0.9702424850438113  0.6761621341998698  0.3238378658001302
  0.9702424850438113  0.3238378658001302  0.6761621341998698
  0.3238378658001302  0.0297575149561888  0.3238378658001302
  0.6761621341998698  0.0297575149561888  0.6761621341998698
  0.3238378658001302  0.9702424850438113  0.6761621341998698
  0.6761621341998698  0.9702424850438113  0.3238378658001302
  0.1299806828364057  0.1299806828364057  0.1299806828364057
  0.8700193171635944  0.8700193171635944  0.1299806828364057
  0.8700193171635944  0.1299806828364057  0.8700193171635944
  0.1299806828364057  0.8700193171635944  0.8700193171635944
  0.8085110363047708  0.8085110363047708  0.5357596031761053
  0.1914889636952292  0.1914889636952292  0.5357596031761053
  0.1914889636952292  0.8085110363047708  0.4642403968238946
  0.8085110363047708  0.1914889636952292  0.4642403968238946
  0.5357596031761053  0.8085110363047708  0.8085110363047708
  0.5357596031761053  0.1914889636952292  0.1914889636952292
  0.4642403968238946  0.1914889636952292  0.8085110363047708
  0.4642403968238946  0.8085110363047708  0.1914889636952292
  0.8085110363047708  0.5357596031761053  0.8085110363047708
  0.1914889636952292  0.5357596031761053  0.1914889636952292
  0.8085110363047708  0.4642403968238946  0.1914889636952292
  0.1914889636952292  0.4642403968238946  0.8085110363047708
 
  0.00000000E+00  0.00000000E+00  0.00000000E+00
  0.00000000E+00  0.00000000E+00  0.00000000E+00
  0.00000000E+00  0.00000000E+00  0.00000000E+00
  0.00000000E+00  0.00000000E+00  0.00000000E+00
  0.00000000E+00  0.00000000E+00  0.00000000E+00
  0.00000000E+00  0.00000000E+00  0.00000000E+00
  0.00000000E+00  0.00000000E+00  0.00000000E+00
  0.00000000E+00  0.00000000E+00  0.00000000E+00
  0.00000000E+00  0.00000000E+00  0.00000000E+00
  0.00000000E+00  0.00000000E+00  0.00000000E+00
  0.00000000E+00  0.00000000E+00  0.00000000E+00
  0.00000000E+00  0.00000000E+00  0.00000000E+00
  0.00000000E+00  0.00000000E+00  0.00000000E+00
  0.00000000E+00  0.00000000E+00  0.00000000E+00
  0.00000000E+00  0.00000000E+00  0.00000000E+00
  0.00000000E+00  0.00000000E+00  0.00000000E+00
  0.00000000E+00  0.00000000E+00  0.00000000E+00
  0.00000000E+00  0.00000000E+00  0.00000000E+00
  0.00000000E+00  0.00000000E+00  0.00000000E+00
  0.00000000E+00  0.00000000E+00  0.00000000E+00
  0.00000000E+00  0.00000000E+00  0.00000000E+00
  0.00000000E+00  0.00000000E+00  0.00000000E+00
  0.00000000E+00  0.00000000E+00  0.00000000E+00
  0.00000000E+00  0.00000000E+00  0.00000000E+00
  0.00000000E+00  0.00000000E+00  0.00000000E+00
  0.00000000E+00  0.00000000E+00  0.00000000E+00
  0.00000000E+00  0.00000000E+00  0.00000000E+00
  0.00000000E+00  0.00000000E+00  0.00000000E+00
  0.00000000E+00  0.00000000E+00  0.00000000E+00
  0.00000000E+00  0.00000000E+00  0.00000000E+00
  0.00000000E+00  0.00000000E+00  0.00000000E+00
  0.00000000E+00  0.00000000E+00  0.00000000E+00
  0.00000000E+00  0.00000000E+00  0.00000000E+00
  0.00000000E+00  0.00000000E+00  0.00000000E+00
  0.00000000E+00  0.00000000E+00  0.00000000E+00
  0.00000000E+00  0.00000000E+00  0.00000000E+00
  0.00000000E+00  0.00000000E+00  0.00000000E+00
  0.00000000E+00  0.00000000E+00  0.00000000E+00
  0.00000000E+00  0.00000000E+00  0.00000000E+00
  0.00000000E+00  0.00000000E+00  0.00000000E+00
  0.00000000E+00  0.00000000E+00  0.00000000E+00
  0.00000000E+00  0.00000000E+00  0.00000000E+00
  0.00000000E+00  0.00000000E+00  0.00000000E+00
  0.00000000E+00  0.00000000E+00  0.00000000E+00
  0.00000000E+00  0.00000000E+00  0.00000000E+00
  0.00000000E+00  0.00000000E+00  0.00000000E+00
  0.00000000E+00  0.00000000E+00  0.00000000E+00
  0.00000000E+00  0.00000000E+00  0.00000000E+00
  0.00000000E+00  0.00000000E+00  0.00000000E+00
  0.00000000E+00  0.00000000E+00  0.00000000E+00
  0.00000000E+00  0.00000000E+00  0.00000000E+00
  0.00000000E+00  0.00000000E+00  0.00000000E+00
