Ni1Zr1   [ORCC,ORCC,oS8] (STD_PRIM doi:1
   1.00000000000000     
     1.6483847668221594   -4.9634420622269397    0.0000000000000000
     1.6483847668221594    4.9634420622269397   -0.0000000000000000
     0.0000000000000000    0.0000000000000000    4.0619515079813295
   2   2
Direct
  0.0820511313925269  0.9179488686074730  0.7500000000000000
  0.9179488686074730  0.0820511313925269  0.2500000000000000
  0.3605766947482810  0.6394233052517190  0.7500000000000000
  0.6394233052517190  0.3605766947482810  0.2500000000000000
 
  0.00000000E+00  0.00000000E+00  0.00000000E+00
  0.00000000E+00  0.00000000E+00  0.00000000E+00
  0.00000000E+00  0.00000000E+00  0.00000000E+00
  0.00000000E+00  0.00000000E+00  0.00000000E+00
