Au1S1Ta5   [FCC,FCC,cF112] (STD_PRIM doi
   1.22474500000000     
    -0.0000000000000000    5.1811376241503053    5.1811376241503044
     5.1811376241503053    0.0000000000000000    5.1811376241503044
     5.1811376241503053    5.1811376241503053    0.0000000000000000
   4   4  20
Direct
  0.1492820280238804  0.1492820280238804  0.5521539159283587
  0.5521539159283587  0.1492820280238804  0.1492820280238804
  0.1492820280238804  0.5521539159283587  0.1492820280238804
  0.1492820280238804  0.1492820280238804  0.1492820280238804
  0.8818519796733010  0.8818519796733010  0.3544440609800970
  0.3544440609800970  0.8818519796733010  0.8818519796733010
  0.8818519796733010  0.3544440609800970  0.8818519796733010
  0.8818519796733010  0.8818519796733010  0.8818519796733010
  0.3671017233448937  0.3671017233448937  0.8986948299653259
  0.8986948299653259  0.3671017233448937  0.3671017233448937
  0.3671017233448937  0.8986948299653259  0.3671017233448937
  0.3671017233448937  0.3671017233448937  0.3671017233448937
  0.2220350331420581  0.2220350331420581  0.7779649668579419
  0.7779649668579419  0.7779649668579419  0.2220350331420581
  0.2220350331420581  0.7779649668579419  0.7779649668579419
  0.7779649668579419  0.2220350331420581  0.2220350331420581
  0.7779649668579419  0.2220350331420581  0.7779649668579419
  0.2220350331420581  0.7779649668579419  0.2220350331420581
  0.9449098877905189  0.9449098877905189  0.5550901122094811
  0.5550901122094811  0.5550901122094811  0.9449098877905189
  0.9449098877905189  0.5550901122094811  0.5550901122094811
  0.5550901122094811  0.9449098877905189  0.9449098877905189
  0.5550901122094811  0.9449098877905189  0.5550901122094811
  0.9449098877905189  0.5550901122094811  0.9449098877905189
  0.5820055604483167  0.5820055604483167  0.2539833186550354
  0.2539833186550354  0.5820055604483167  0.5820055604483167
  0.5820055604483167  0.2539833186550354  0.5820055604483167
  0.5820055604483167  0.5820055604483167  0.5820055604483167
 
  0.00000000E+00  0.00000000E+00  0.00000000E+00
  0.00000000E+00  0.00000000E+00  0.00000000E+00
  0.00000000E+00  0.00000000E+00  0.00000000E+00
  0.00000000E+00  0.00000000E+00  0.00000000E+00
  0.00000000E+00  0.00000000E+00  0.00000000E+00
  0.00000000E+00  0.00000000E+00  0.00000000E+00
  0.00000000E+00  0.00000000E+00  0.00000000E+00
  0.00000000E+00  0.00000000E+00  0.00000000E+00
  0.00000000E+00  0.00000000E+00  0.00000000E+00
  0.00000000E+00  0.00000000E+00  0.00000000E+00
  0.00000000E+00  0.00000000E+00  0.00000000E+00
  0.00000000E+00  0.00000000E+00  0.00000000E+00
  0.00000000E+00  0.00000000E+00  0.00000000E+00
  0.00000000E+00  0.00000000E+00  0.00000000E+00
  0.00000000E+00  0.00000000E+00  0.00000000E+00
  0.00000000E+00  0.00000000E+00  0.00000000E+00
  0.00000000E+00  0.00000000E+00  0.00000000E+00
  0.00000000E+00  0.00000000E+00  0.00000000E+00
  0.00000000E+00  0.00000000E+00  0.00000000E+00
  0.00000000E+00  0.00000000E+00  0.00000000E+00
  0.00000000E+00  0.00000000E+00  0.00000000E+00
  0.00000000E+00  0.00000000E+00  0.00000000E+00
  0.00000000E+00  0.00000000E+00  0.00000000E+00
  0.00000000E+00  0.00000000E+00  0.00000000E+00
  0.00000000E+00  0.00000000E+00  0.00000000E+00
  0.00000000E+00  0.00000000E+00  0.00000000E+00
  0.00000000E+00  0.00000000E+00  0.00000000E+00
  0.00000000E+00  0.00000000E+00  0.00000000E+00
