Ca1Pb1Zn1 #194 - (Ca1Pb1Zn1_ICSD_659603)
   1.00000000000000     
     2.4017921909281927   -4.1585201879445215    0.0000000000000000
     2.4017921909281927    4.1585201879445215   -0.0000000000000000
     0.0000000000000000   -0.0000000000000000    7.8608253471915521
   2   2   2
Direct
  0.0000000000000000  0.0000000000000000  0.0000000000000000
  0.0000000000000000  0.0000000000000000  0.5000000000000000
  0.3334568737570416  0.6665431262429586  0.2500000000000000
  0.6665431262429586  0.3334568737570416  0.7500000000000000
  0.3334521915619067  0.6665478084380932  0.7500000000000000
  0.6665478084380932  0.3334521915619067  0.2500000000000000
 
  0.00000000E+00  0.00000000E+00  0.00000000E+00
  0.00000000E+00  0.00000000E+00  0.00000000E+00
  0.00000000E+00  0.00000000E+00  0.00000000E+00
  0.00000000E+00  0.00000000E+00  0.00000000E+00
  0.00000000E+00  0.00000000E+00  0.00000000E+00
  0.00000000E+00  0.00000000E+00  0.00000000E+00
