F6Ni1Rb2   [FCC,FCC,cF36] (STD_PRIM doi:
   1.22474500000000     
     0.0000000000000000    3.5279206764710849    3.5279206764710849
     3.5279206764710849    0.0000000000000000    3.5279206764710849
     3.5279206764710849    3.5279206764710849    0.0000000000000000
   6   1   2
Direct
  0.2092315977991014  0.7907684022008987  0.2092315977991014
  0.7907684022008987  0.2092315977991014  0.7907684022008987
  0.2092315977991014  0.7907684022008987  0.7907684022008987
  0.7907684022008987  0.2092315977991014  0.2092315977991014
  0.2092315977991014  0.2092315977991014  0.7907684022008987
  0.7907684022008987  0.7907684022008987  0.2092315977991014
 -0.0000000000000000  0.0000000000000000 -0.0000000000000000
  0.7500000000000000  0.7500000000000000  0.7500000000000000
  0.2500000000000000  0.2500000000000000  0.2500000000000000
 
  0.00000000E+00  0.00000000E+00  0.00000000E+00
  0.00000000E+00  0.00000000E+00  0.00000000E+00
  0.00000000E+00  0.00000000E+00  0.00000000E+00
  0.00000000E+00  0.00000000E+00  0.00000000E+00
  0.00000000E+00  0.00000000E+00  0.00000000E+00
  0.00000000E+00  0.00000000E+00  0.00000000E+00
  0.00000000E+00  0.00000000E+00  0.00000000E+00
  0.00000000E+00  0.00000000E+00  0.00000000E+00
  0.00000000E+00  0.00000000E+00  0.00000000E+00
