Nb1P1Zr1   [ORC,ORC,oP12] (STD_PRIM doi:
   1.00000000000000     
     3.5869922819461428    0.0000000000000000    0.0000000000000000
    -0.0000000000000000    6.9213843592450708    0.0000000000000000
     0.0000000000000000    0.0000000000000000    8.3599715419723406
   4   4   4
Direct
  0.2500000000000000  0.1391315788520982  0.0598147285887526
  0.7500000000000000  0.3608684211479018  0.5598147285887527
  0.7500000000000000  0.8608684211479019  0.9401852714112473
  0.2500000000000000  0.6391315788520981  0.4401852714112474
  0.2500000000000000  0.2619481539437025  0.3572944537804383
  0.7500000000000000  0.2380518460562976  0.8572944537804383
  0.7500000000000000  0.7380518460562976  0.6427055462195617
  0.2500000000000000  0.7619481539437024  0.1427055462195617
  0.2500000000000000  0.0334954128475087  0.6687829062403892
  0.7500000000000000  0.4665045871524913  0.1687829062403892
  0.7500000000000000  0.9665045871524913  0.3312170937596108
  0.2500000000000000  0.5334954128475087  0.8312170937596108
 
  0.00000000E+00  0.00000000E+00  0.00000000E+00
  0.00000000E+00  0.00000000E+00  0.00000000E+00
  0.00000000E+00  0.00000000E+00  0.00000000E+00
  0.00000000E+00  0.00000000E+00  0.00000000E+00
  0.00000000E+00  0.00000000E+00  0.00000000E+00
  0.00000000E+00  0.00000000E+00  0.00000000E+00
  0.00000000E+00  0.00000000E+00  0.00000000E+00
  0.00000000E+00  0.00000000E+00  0.00000000E+00
  0.00000000E+00  0.00000000E+00  0.00000000E+00
  0.00000000E+00  0.00000000E+00  0.00000000E+00
  0.00000000E+00  0.00000000E+00  0.00000000E+00
  0.00000000E+00  0.00000000E+00  0.00000000E+00
