Ho1Ir1Si1   [ORC,ORC,oP12] (STD_PRIM doi
   1.00000000000000     
     4.2255501246097138    0.0000000000000000    0.0000000000000000
     0.0000000000000000    6.8352686934061939    0.0000000000000000
     0.0000000000000000    0.0000000000000000    7.3538778583115629
   4   4   4
Direct
  0.2500000000000000  0.9987787119532996  0.3122700196266948
  0.7500000000000000  0.5012212880467004  0.8122700196266948
  0.7500000000000000  0.0012212880467004  0.6877299803733052
  0.2500000000000000  0.4987787119532996  0.1877299803733052
  0.2500000000000000  0.1564053575631803  0.9307996696162775
  0.7500000000000000  0.3435946424368197  0.4307996696162775
  0.7500000000000000  0.8435946424368197  0.0692003303837225
  0.2500000000000000  0.6564053575631803  0.5692003303837225
  0.2500000000000000  0.2985018414723797  0.6070072583609019
  0.7500000000000000  0.2014981585276203  0.1070072583609019
  0.7500000000000000  0.7014981585276203  0.3929927416390981
  0.2500000000000000  0.7985018414723797  0.8929927416390981
 
  0.00000000E+00  0.00000000E+00  0.00000000E+00
  0.00000000E+00  0.00000000E+00  0.00000000E+00
  0.00000000E+00  0.00000000E+00  0.00000000E+00
  0.00000000E+00  0.00000000E+00  0.00000000E+00
  0.00000000E+00  0.00000000E+00  0.00000000E+00
  0.00000000E+00  0.00000000E+00  0.00000000E+00
  0.00000000E+00  0.00000000E+00  0.00000000E+00
  0.00000000E+00  0.00000000E+00  0.00000000E+00
  0.00000000E+00  0.00000000E+00  0.00000000E+00
  0.00000000E+00  0.00000000E+00  0.00000000E+00
  0.00000000E+00  0.00000000E+00  0.00000000E+00
  0.00000000E+00  0.00000000E+00  0.00000000E+00
