Cd2O4Sn1   [ORC,ORC,oP14] (STD_PRIM doi:
   1.00000000000000     
     3.2811551299790862    0.0000000000000000    0.0000000000000000
     0.0000000000000000    5.6748992212018843    0.0000000000000000
     0.0000000000000000    0.0000000000000000   10.1195749106508419
   4   8   2
Direct
  0.5000000000000000  0.0595431330752077  0.6772185784353579
  0.5000000000000000  0.9404568669247922  0.3227814215646421
  0.5000000000000000  0.4404568669247922  0.1772185784353579
  0.5000000000000000  0.5595431330752078  0.8227814215646421
  0.5000000000000000  0.2391498595630459  0.9599340030539711
  0.5000000000000000  0.7608501404369541  0.0400659969460289
  0.5000000000000000  0.2608501404369541  0.4599340030539711
  0.5000000000000000  0.7391498595630459  0.5400659969460289
  0.0000000000000000  0.3597507141458059  0.6939837913613898
  0.0000000000000000  0.6402492858541941  0.3060162086386102
  0.0000000000000000  0.1402492858541941  0.1939837913613897
  0.0000000000000000  0.8597507141458059  0.8060162086386102
  0.0000000000000000  0.0000000000000000  0.0000000000000000
  0.0000000000000000  0.5000000000000000  0.5000000000000000
 
  0.00000000E+00  0.00000000E+00  0.00000000E+00
  0.00000000E+00  0.00000000E+00  0.00000000E+00
  0.00000000E+00  0.00000000E+00  0.00000000E+00
  0.00000000E+00  0.00000000E+00  0.00000000E+00
  0.00000000E+00  0.00000000E+00  0.00000000E+00
  0.00000000E+00  0.00000000E+00  0.00000000E+00
  0.00000000E+00  0.00000000E+00  0.00000000E+00
  0.00000000E+00  0.00000000E+00  0.00000000E+00
  0.00000000E+00  0.00000000E+00  0.00000000E+00
  0.00000000E+00  0.00000000E+00  0.00000000E+00
  0.00000000E+00  0.00000000E+00  0.00000000E+00
  0.00000000E+00  0.00000000E+00  0.00000000E+00
  0.00000000E+00  0.00000000E+00  0.00000000E+00
  0.00000000E+00  0.00000000E+00  0.00000000E+00
