Ag1C2K1   [TET,TET,tP4] (STD_PRIM doi:10
   1.00000000000000     
     4.2900148715757158    0.0000000000000000    0.0000000000000000
     0.0000000000000000    4.2900148715757158    0.0000000000000000
     0.0000000000000000   -0.0000000000000000    5.3808681438240082
   1   2   1
Direct
  0.0000000000000000 -0.0000000000000000  0.0000000000000000
 -0.0000000000000000 -0.0000000000000000  0.3840278145643766
  0.0000000000000000  0.0000000000000000  0.6159721854356235
  0.5000000000000000  0.5000000000000000  0.5000000000000000
 
  0.00000000E+00  0.00000000E+00  0.00000000E+00
  0.00000000E+00  0.00000000E+00  0.00000000E+00
  0.00000000E+00  0.00000000E+00  0.00000000E+00
  0.00000000E+00  0.00000000E+00  0.00000000E+00
