Al4Co1La1   [ORC,ORC,oP12] (STD_PRIM doi
   1.00000000000000     
     4.0295188761292717    0.0000000000000000    0.0000000000000000
     0.0000000000000000    7.0233725402287392   -0.0000000000000000
     0.0000000000000000    0.0000000000000000    7.7089124046066155
   8   2   2
Direct
  0.5000000000000000  0.2892159791164752  0.0718751804696091
  0.5000000000000000  0.2892159791164752  0.4281248195303909
  0.5000000000000000  0.7107840208835248  0.9281248195303909
  0.5000000000000000  0.7107840208835248  0.5718751804696091
  0.5000000000000000  0.9561607989439247  0.2500000000000000
  0.5000000000000000  0.0438392010560752  0.7500000000000000
  0.0000000000000000  0.0000000000000000  0.0000000000000000
  0.0000000000000000  0.0000000000000000  0.5000000000000000
  0.0000000000000000  0.1758740271362386  0.2500000000000000
  0.0000000000000000  0.8241259728637756  0.7500000000000000
 -0.0000000000000000  0.6106442289705226  0.2500000000000000
  0.0000000000000000  0.3893557710294773  0.7500000000000000
 
  0.00000000E+00  0.00000000E+00  0.00000000E+00
  0.00000000E+00  0.00000000E+00  0.00000000E+00
  0.00000000E+00  0.00000000E+00  0.00000000E+00
  0.00000000E+00  0.00000000E+00  0.00000000E+00
  0.00000000E+00  0.00000000E+00  0.00000000E+00
  0.00000000E+00  0.00000000E+00  0.00000000E+00
  0.00000000E+00  0.00000000E+00  0.00000000E+00
  0.00000000E+00  0.00000000E+00  0.00000000E+00
  0.00000000E+00  0.00000000E+00  0.00000000E+00
  0.00000000E+00  0.00000000E+00  0.00000000E+00
  0.00000000E+00  0.00000000E+00  0.00000000E+00
  0.00000000E+00  0.00000000E+00  0.00000000E+00
