Mg3Ni2Ti1   [FCC,FCC,cF96] (STD_PRIM doi
   1.22474500000000     
    -0.0000000000000000    4.7538598494576449    4.7538598494576449
     4.7538598494576449    0.0000000000000000    4.7538598494576449
     4.7538598494576449    4.7538598494576449    0.0000000000000000
  12   8   4
Direct
  0.6835930490156252  0.5664069509843748  0.5664069509843748
  0.0664069509843748  0.1835930490156252  0.1835930490156252
  0.6835930490156252  0.1835930490156252  0.5664069509843748
  0.0664069509843748  0.5664069509843748  0.1835930490156252
  0.6835930490156252  0.5664069509843748  0.1835930490156252
  0.0664069509843748  0.1835930490156252  0.5664069509843748
  0.9335930490156252  0.4335930490156252  0.8164069509843748
  0.3164069509843748  0.8164069509843748  0.4335930490156252
  0.9335930490156252  0.8164069509843748  0.8164069509843748
  0.3164069509843748  0.4335930490156252  0.4335930490156252
  0.3164069509843748  0.4335930490156252  0.8164069509843748
  0.9335930490156252  0.8164069509843748  0.4335930490156252
  0.6185598275804745  0.7938133908065133  0.7938133908065133
  0.2938133908065133  0.7938133908065133  0.1185598275804745
  0.2938133908065133  0.1185598275804745  0.7938133908065133
  0.2938133908065133  0.7938133908065133  0.7938133908065133
  0.7061866091934867  0.2061866091934939  0.8814401724195255
  0.3814401724195255  0.2061866091934939  0.2061866091934939
  0.7061866091934867  0.8814401724195255  0.2061866091934939
  0.7061866091934867  0.2061866091934939  0.2061866091934939
  0.0000000000000000  0.0000000000000000 -0.0000000000000000
  0.5000000000000000 -0.0000000000000000  0.5000000000000000
  0.5000000000000000  0.5000000000000000  0.0000000000000000
  0.5000000000000000  0.0000000000000000  0.0000000000000000
 
  0.00000000E+00  0.00000000E+00  0.00000000E+00
  0.00000000E+00  0.00000000E+00  0.00000000E+00
  0.00000000E+00  0.00000000E+00  0.00000000E+00
  0.00000000E+00  0.00000000E+00  0.00000000E+00
  0.00000000E+00  0.00000000E+00  0.00000000E+00
  0.00000000E+00  0.00000000E+00  0.00000000E+00
  0.00000000E+00  0.00000000E+00  0.00000000E+00
  0.00000000E+00  0.00000000E+00  0.00000000E+00
  0.00000000E+00  0.00000000E+00  0.00000000E+00
  0.00000000E+00  0.00000000E+00  0.00000000E+00
  0.00000000E+00  0.00000000E+00  0.00000000E+00
  0.00000000E+00  0.00000000E+00  0.00000000E+00
  0.00000000E+00  0.00000000E+00  0.00000000E+00
  0.00000000E+00  0.00000000E+00  0.00000000E+00
  0.00000000E+00  0.00000000E+00  0.00000000E+00
  0.00000000E+00  0.00000000E+00  0.00000000E+00
  0.00000000E+00  0.00000000E+00  0.00000000E+00
  0.00000000E+00  0.00000000E+00  0.00000000E+00
  0.00000000E+00  0.00000000E+00  0.00000000E+00
  0.00000000E+00  0.00000000E+00  0.00000000E+00
  0.00000000E+00  0.00000000E+00  0.00000000E+00
  0.00000000E+00  0.00000000E+00  0.00000000E+00
  0.00000000E+00  0.00000000E+00  0.00000000E+00
  0.00000000E+00  0.00000000E+00  0.00000000E+00
