Ca3Ir4Sn13   [CUB,CUB,cP40] (STD_PRIM do
   1.00000000000000     
     9.9106418778485708    0.0000000000000000   -0.0000000000000000
    -0.0000000000000000    9.9106418778485708    0.0000000000000000
     0.0000000000000000   -0.0000000000000000    9.9106418778485708
   6   8  26
Direct
  0.2500000000000000  0.5000000000000000  0.0000000000000000
  0.7500000000000000  0.5000000000000000 -0.0000000000000000
  0.0000000000000000  0.2500000000000000  0.5000000000000000
 -0.0000000000000000  0.7500000000000000  0.5000000000000000
  0.5000000000000000 -0.0000000000000000  0.2500000000000000
  0.5000000000000000  0.0000000000000000  0.7500000000000000
  0.2500000000000000  0.2500000000000000  0.2500000000000000
  0.7500000000000000  0.7500000000000000  0.2500000000000000
  0.7500000000000000  0.2500000000000000  0.7500000000000000
  0.2500000000000000  0.7500000000000000  0.7500000000000000
  0.7500000000000000  0.7500000000000000  0.7500000000000000
  0.2500000000000000  0.2500000000000000  0.7500000000000000
  0.2500000000000000  0.7500000000000000  0.2500000000000000
  0.7500000000000000  0.2500000000000000  0.2500000000000000
  0.0000000000000000  0.0000000000000000  0.0000000000000000
  0.5000000000000000  0.5000000000000000  0.5000000000000000
 -0.0000000000000000  0.3039656831499952  0.1535749139253925
  0.0000000000000000  0.6960343168500048  0.1535749139253925
 -0.0000000000000000  0.3039656831499952  0.8464250860746075
  0.0000000000000000  0.6960343168500048  0.8464250860746075
  0.1535749139253925 -0.0000000000000000  0.3039656831499952
  0.1535749139253925  0.0000000000000000  0.6960343168500048
  0.8464250860746075 -0.0000000000000000  0.3039656831499952
  0.8464250860746075  0.0000000000000000  0.6960343168500048
  0.3039656831499952  0.1535749139253925 -0.0000000000000000
  0.6960343168500048  0.1535749139253925  0.0000000000000000
  0.3039656831499952  0.8464250860746075 -0.0000000000000000
  0.6960343168500048  0.8464250860746075  0.0000000000000000
  0.8039656831499952  0.5000000000000000  0.3464250860746075
  0.1960343168500049  0.5000000000000000  0.3464250860746075
  0.8039656831499952  0.5000000000000000  0.6535749139253925
  0.1960343168500049  0.5000000000000000  0.6535749139253925
  0.5000000000000000  0.6535749139253925  0.1960343168500049
  0.5000000000000000  0.6535749139253925  0.8039656831499952
  0.5000000000000000  0.3464250860746075  0.1960343168500049
  0.5000000000000000  0.3464250860746075  0.8039656831499952
  0.6535749139253925  0.8039656831499952  0.5000000000000000
  0.6535749139253925  0.1960343168500049  0.5000000000000000
  0.3464250860746075  0.8039656831499952  0.5000000000000000
  0.3464250860746075  0.1960343168500049  0.5000000000000000
 
  0.00000000E+00  0.00000000E+00  0.00000000E+00
  0.00000000E+00  0.00000000E+00  0.00000000E+00
  0.00000000E+00  0.00000000E+00  0.00000000E+00
  0.00000000E+00  0.00000000E+00  0.00000000E+00
  0.00000000E+00  0.00000000E+00  0.00000000E+00
  0.00000000E+00  0.00000000E+00  0.00000000E+00
  0.00000000E+00  0.00000000E+00  0.00000000E+00
  0.00000000E+00  0.00000000E+00  0.00000000E+00
  0.00000000E+00  0.00000000E+00  0.00000000E+00
  0.00000000E+00  0.00000000E+00  0.00000000E+00
  0.00000000E+00  0.00000000E+00  0.00000000E+00
  0.00000000E+00  0.00000000E+00  0.00000000E+00
  0.00000000E+00  0.00000000E+00  0.00000000E+00
  0.00000000E+00  0.00000000E+00  0.00000000E+00
  0.00000000E+00  0.00000000E+00  0.00000000E+00
  0.00000000E+00  0.00000000E+00  0.00000000E+00
  0.00000000E+00  0.00000000E+00  0.00000000E+00
  0.00000000E+00  0.00000000E+00  0.00000000E+00
  0.00000000E+00  0.00000000E+00  0.00000000E+00
  0.00000000E+00  0.00000000E+00  0.00000000E+00
  0.00000000E+00  0.00000000E+00  0.00000000E+00
  0.00000000E+00  0.00000000E+00  0.00000000E+00
  0.00000000E+00  0.00000000E+00  0.00000000E+00
  0.00000000E+00  0.00000000E+00  0.00000000E+00
  0.00000000E+00  0.00000000E+00  0.00000000E+00
  0.00000000E+00  0.00000000E+00  0.00000000E+00
  0.00000000E+00  0.00000000E+00  0.00000000E+00
  0.00000000E+00  0.00000000E+00  0.00000000E+00
  0.00000000E+00  0.00000000E+00  0.00000000E+00
  0.00000000E+00  0.00000000E+00  0.00000000E+00
  0.00000000E+00  0.00000000E+00  0.00000000E+00
  0.00000000E+00  0.00000000E+00  0.00000000E+00
  0.00000000E+00  0.00000000E+00  0.00000000E+00
  0.00000000E+00  0.00000000E+00  0.00000000E+00
  0.00000000E+00  0.00000000E+00  0.00000000E+00
  0.00000000E+00  0.00000000E+00  0.00000000E+00
  0.00000000E+00  0.00000000E+00  0.00000000E+00
  0.00000000E+00  0.00000000E+00  0.00000000E+00
  0.00000000E+00  0.00000000E+00  0.00000000E+00
  0.00000000E+00  0.00000000E+00  0.00000000E+00
