Pt1Sb2Zr6   [HEX,HEX,hP9] (STD_PRIM doi:
   1.00000000000000     
     3.9371994681875959   -6.8194386347490203    0.0000000000000000
     3.9371994681875959    6.8194386347490203    0.0000000000000000
     0.0000000000000000    0.0000000000000000    3.6989398447903992
   1   2   6
Direct
  0.9999984751516118  0.9999984751516118  0.0000000000000000
  0.3333228946341217  0.6666745939073778  0.5000000000000000
  0.6666745939073778  0.3333228946341217  0.5000000000000000
  0.5951768189026005  0.9999941102725743  0.0000000000000000
  0.9999941102725743  0.5951768189026005  0.0000000000000000
  0.4048247870463869  0.4048247870463869  0.0000000000000000
  0.2517408310462098  0.0000120835883309  0.5000000000000000
  0.0000120835883309  0.2517408310462098  0.5000000000000000
  0.7482554054507861  0.7482554054507861  0.5000000000000000
 
  0.00000000E+00  0.00000000E+00  0.00000000E+00
  0.00000000E+00  0.00000000E+00  0.00000000E+00
  0.00000000E+00  0.00000000E+00  0.00000000E+00
  0.00000000E+00  0.00000000E+00  0.00000000E+00
  0.00000000E+00  0.00000000E+00  0.00000000E+00
  0.00000000E+00  0.00000000E+00  0.00000000E+00
  0.00000000E+00  0.00000000E+00  0.00000000E+00
  0.00000000E+00  0.00000000E+00  0.00000000E+00
  0.00000000E+00  0.00000000E+00  0.00000000E+00
