Al1Cu1O2   [HEX,HEX,hP8] (STD_PRIM doi:1
   1.00000000000000     
     1.4385076675499948   -2.4915683672739952    0.0000000000000000
     1.4384926118361174    2.4915596748535354    0.0000000000000000
     0.0000000000000000    0.0000000000000000   11.3898098217904362
   2   2   4
Direct
 -0.0000000000000000  0.0000000000000000  0.0000000000000000
  0.0000000000000000 -0.0000000000000000  0.5000000000000000
  0.6666769968432580  0.3333539936865160  0.2500000000000000
  0.3333230031567420  0.6666460063134840  0.7500000000000000
  0.6666819814846533  0.3333639629693065  0.0851634931730064
  0.3333180185153468  0.6666360370306935  0.5851634931730064
  0.3333180185153468  0.6666360370306935  0.9148365068269936
  0.6666819814846533  0.3333639629693065  0.4148365068269936
 
  0.00000000E+00  0.00000000E+00  0.00000000E+00
  0.00000000E+00  0.00000000E+00  0.00000000E+00
  0.00000000E+00  0.00000000E+00  0.00000000E+00
  0.00000000E+00  0.00000000E+00  0.00000000E+00
  0.00000000E+00  0.00000000E+00  0.00000000E+00
  0.00000000E+00  0.00000000E+00  0.00000000E+00
  0.00000000E+00  0.00000000E+00  0.00000000E+00
  0.00000000E+00  0.00000000E+00  0.00000000E+00
