Ho5S7   [MCLC,MCLC1,mS24] (STD_PRIM doi:
   1.00000000000000     
     1.8944712659966436    6.3933844647553864   -0.0169283665695869
    -1.8944712659966436    6.3933844647553864   -0.0169283665695869
     0.0000000000000000    2.9307791465459636   11.1905330388924682
   5   7
Direct
  0.0000000000000000  0.0000000000000000  0.0000000000000000
  0.1119550682905109  0.1119550682905109  0.5786980191215144
  0.8880449317094891  0.8880449317094891  0.4213019808784855
  0.3002971007900475  0.3002971007900475  0.8127565106471504
  0.6997028992099525  0.6997028992099525  0.1872434893528497
  0.5000000000000000  0.5000000000000000  0.5000000000000000
  0.6591459622900039  0.6591459622900039  0.9490168743429995
  0.3408540377099962  0.3408540377099962  0.0509831256570005
  0.9587862002006294  0.9587862002006294  0.7849958394502110
  0.0412137997993777  0.0412137997993777  0.2150041605497890
  0.2590009658544705  0.2590009658544705  0.3524483865087705
  0.7409990341455295  0.7409990341455295  0.6475516134912295
 
  0.00000000E+00  0.00000000E+00  0.00000000E+00
  0.00000000E+00  0.00000000E+00  0.00000000E+00
  0.00000000E+00  0.00000000E+00  0.00000000E+00
  0.00000000E+00  0.00000000E+00  0.00000000E+00
  0.00000000E+00  0.00000000E+00  0.00000000E+00
  0.00000000E+00  0.00000000E+00  0.00000000E+00
  0.00000000E+00  0.00000000E+00  0.00000000E+00
  0.00000000E+00  0.00000000E+00  0.00000000E+00
  0.00000000E+00  0.00000000E+00  0.00000000E+00
  0.00000000E+00  0.00000000E+00  0.00000000E+00
  0.00000000E+00  0.00000000E+00  0.00000000E+00
  0.00000000E+00  0.00000000E+00  0.00000000E+00
