C1   [HEX,HEX,hP8] (STD_PRIM doi:10.1016
   1.00000000000000     
     1.2594101843332222   -2.1813696560011850   -0.0000000000000000
     1.2594101843332222    2.1813696560011850    0.0000000000000000
     0.0000000000000000    0.0000000000000000    8.3067144975949425
   8
Direct
  0.9999891996720018  0.0000108003279983  0.0929752261915362
  0.0000108003279983  0.9999891996720018  0.5929752261915362
  0.0000108003279983  0.9999891996720018  0.9070247738084638
  0.9999891996720018  0.0000108003279983  0.4070247738084638
  0.3333220282096117  0.6666779717903882  0.1555404302065837
  0.6666779717903882  0.3333220282096117  0.6555404302065837
  0.6666779717903882  0.3333220282096117  0.8444595697934163
  0.3333220282096117  0.6666779717903882  0.3444595697934163
 
  0.00000000E+00  0.00000000E+00  0.00000000E+00
  0.00000000E+00  0.00000000E+00  0.00000000E+00
  0.00000000E+00  0.00000000E+00  0.00000000E+00
  0.00000000E+00  0.00000000E+00  0.00000000E+00
  0.00000000E+00  0.00000000E+00  0.00000000E+00
  0.00000000E+00  0.00000000E+00  0.00000000E+00
  0.00000000E+00  0.00000000E+00  0.00000000E+00
  0.00000000E+00  0.00000000E+00  0.00000000E+00
