Li1Ru1Sn4   [BCT,BCT2,tI24] (STD_PRIM do
   1.00000000000000     
    -3.3796342903647747    3.3796342903647747    5.7437618257644445
     3.3796342903647747   -3.3796342903647747    5.7437618257644445
     3.3796342903647747    3.3796342903647747   -5.7437618257644445
   2   2   8
Direct
  0.0000000000000000 -0.0000000000000000 -0.0000000000000000
  0.5000000000000000  0.5000000000000000  0.0000000000000000
  0.2500000000000000  0.2500000000000000 -0.0000000000000000
  0.7500000000000000  0.7500000000000000  0.0000000000000000
  0.5244656752940295  0.0244656752940295  0.8225048966025142
  0.2019607786915152  0.7019607786915152  0.1774951033974857
  0.0244656752940295  0.2019607786915152  0.5000000000000000
  0.7019607786915152  0.5244656752940295  0.5000000000000000
  0.9755343247059705  0.7980392213084848  0.5000000000000000
  0.2980392213084848  0.4755343247059705  0.5000000000000000
  0.4755343247059705  0.9755343247059705  0.1774951033974857
  0.7980392213084848  0.2980392213084848  0.8225048966025142
 
  0.00000000E+00  0.00000000E+00  0.00000000E+00
  0.00000000E+00  0.00000000E+00  0.00000000E+00
  0.00000000E+00  0.00000000E+00  0.00000000E+00
  0.00000000E+00  0.00000000E+00  0.00000000E+00
  0.00000000E+00  0.00000000E+00  0.00000000E+00
  0.00000000E+00  0.00000000E+00  0.00000000E+00
  0.00000000E+00  0.00000000E+00  0.00000000E+00
  0.00000000E+00  0.00000000E+00  0.00000000E+00
  0.00000000E+00  0.00000000E+00  0.00000000E+00
  0.00000000E+00  0.00000000E+00  0.00000000E+00
  0.00000000E+00  0.00000000E+00  0.00000000E+00
  0.00000000E+00  0.00000000E+00  0.00000000E+00
