In9K1Ni2   [HEX,HEX,hP12] (STD_PRIM doi:
   1.00000000000000     
     4.4229578027458345   -7.6590833569728254    0.0000000000000000
     4.4229578027458345    7.6590833569728254    0.0000000000000000
     0.0000000000000000    0.0000000000000000    4.3524344051035291
   9   1   2
Direct
  0.2091526866544571  0.4182842391634395  0.5000000000000000
  0.5817157608365603  0.7908473133455428  0.5000000000000000
  0.2091073070508882  0.7908926929491118  0.5000000000000000
  0.7908473133455428  0.5817157608365603  0.5000000000000000
  0.4182842391634395  0.2091526866544571  0.5000000000000000
  0.7908926929491118  0.2091073070508882  0.5000000000000000
 -0.0000000000000000  0.5000000000000000  0.0000000000000000
  0.5000000000000000  0.5000000000000000  0.0000000000000000
  0.5000000000000000  0.0000000000000000  0.0000000000000000
  0.0000000000000000 -0.0000000000000000  0.0000000000000000
  0.3333043078455565  0.6666956921544437  0.0000000000000000
  0.6666956921544437  0.3333043078455565  0.0000000000000000
 
  0.00000000E+00  0.00000000E+00  0.00000000E+00
  0.00000000E+00  0.00000000E+00  0.00000000E+00
  0.00000000E+00  0.00000000E+00  0.00000000E+00
  0.00000000E+00  0.00000000E+00  0.00000000E+00
  0.00000000E+00  0.00000000E+00  0.00000000E+00
  0.00000000E+00  0.00000000E+00  0.00000000E+00
  0.00000000E+00  0.00000000E+00  0.00000000E+00
  0.00000000E+00  0.00000000E+00  0.00000000E+00
  0.00000000E+00  0.00000000E+00  0.00000000E+00
  0.00000000E+00  0.00000000E+00  0.00000000E+00
  0.00000000E+00  0.00000000E+00  0.00000000E+00
  0.00000000E+00  0.00000000E+00  0.00000000E+00
