Ho1S2 #129.2 - (Ho1S2_ICSD_639660) - Ho1
    1.000000000000000     
     3.8473247297394182    0.0000000000000000    0.0000000000000000
     0.0000000000000000    3.8473247297394182    0.0000000000000000
     0.0000000000000000    0.0000000000000000    7.9233979231902669
   2   4
Direct
  0.2500000000000000  0.2500000000000000  0.2733098319863409
  0.7500000000000000  0.7500000000000000  0.7266901680136592
  0.7500000000000000  0.2500000000000000  0.0000000000000000
  0.2500000000000000  0.7500000000000000  0.0000000000000000
  0.2500000000000000  0.2500000000000000  0.6316273917862180
  0.7500000000000000  0.7500000000000000  0.3683726082137821
 
  0.00000000E+00  0.00000000E+00  0.00000000E+00
  0.00000000E+00  0.00000000E+00  0.00000000E+00
  0.00000000E+00  0.00000000E+00  0.00000000E+00
  0.00000000E+00  0.00000000E+00  0.00000000E+00
  0.00000000E+00  0.00000000E+00  0.00000000E+00
  0.00000000E+00  0.00000000E+00  0.00000000E+00
