Al1Hf2   [BCT,BCT1,tI12] (STD_PRIM doi:1
   1.00000000000000     
    -3.4165252680518283    3.4165252680518283    2.6219846394590176
     3.4165252680518283   -3.4165252680518283    2.6219846394590176
     3.4165252680518283    3.4165252680518283   -2.6219846394590176
   2   4
Direct
  0.7500000000000000  0.7500000000000000 -0.0000000000000000
  0.2500000000000000  0.2500000000000000 -0.0000000000000000
  0.3485023781104690  0.1514976218895309  0.5000000000000000
  0.6514976218895309  0.8485023781104691  0.5000000000000000
  0.8485023781104691  0.3485023781104690  0.1970047562209381
  0.1514976218895309  0.6514976218895309  0.8029952437790620
 
  0.00000000E+00  0.00000000E+00  0.00000000E+00
  0.00000000E+00  0.00000000E+00  0.00000000E+00
  0.00000000E+00  0.00000000E+00  0.00000000E+00
  0.00000000E+00  0.00000000E+00  0.00000000E+00
  0.00000000E+00  0.00000000E+00  0.00000000E+00
  0.00000000E+00  0.00000000E+00  0.00000000E+00
