B12Sc1   [BCT,BCT2,tI26] (STD_PRIM doi:1
   1.00000000000000     
    -2.6271163538652584    2.6271163538652584    3.7060332389205262
     2.6271163538652584   -2.6271163538652584    3.7060332389205262
     2.6271163538652584    2.6271163538652584   -3.7060332389205262
  12   1
Direct
  0.8388586286905144  0.5000000000000000  0.3388586286905145
  0.1611413713094856  0.5000000000000000  0.6611413713094856
  0.5000000000000000  0.8388586286905144  0.3388586286905145
  0.5000000000000000  0.1611413713094856  0.6611413713094856
  0.4997342424459795  0.4997342424459795  0.6614944501140242
  0.8382397923319553  0.8382397923319553  0.3385055498859758
  0.8382397923319553  0.4997342424459795 -0.0000000000000000
  0.4997342424459795  0.8382397923319553  0.0000000000000000
  0.5002657575540205  0.1617602076680447  0.0000000000000000
  0.1617602076680447  0.5002657575540205  0.0000000000000000
  0.1617602076680447  0.1617602076680447  0.6614944501140242
  0.5002657575540205  0.5002657575540205  0.3385055498859758
 -0.0000000000000000  0.0000000000000000  0.0000000000000000
 
  0.00000000E+00  0.00000000E+00  0.00000000E+00
  0.00000000E+00  0.00000000E+00  0.00000000E+00
  0.00000000E+00  0.00000000E+00  0.00000000E+00
  0.00000000E+00  0.00000000E+00  0.00000000E+00
  0.00000000E+00  0.00000000E+00  0.00000000E+00
  0.00000000E+00  0.00000000E+00  0.00000000E+00
  0.00000000E+00  0.00000000E+00  0.00000000E+00
  0.00000000E+00  0.00000000E+00  0.00000000E+00
  0.00000000E+00  0.00000000E+00  0.00000000E+00
  0.00000000E+00  0.00000000E+00  0.00000000E+00
  0.00000000E+00  0.00000000E+00  0.00000000E+00
  0.00000000E+00  0.00000000E+00  0.00000000E+00
  0.00000000E+00  0.00000000E+00  0.00000000E+00
