N2Re1   [HEX,HEX,hP3] (STD_PRIM doi:10.1
   1.00000000000000     
     1.4775242102212076   -2.5591470015162141    0.0000000000000000
     1.4775971443291123    2.5591891100430457    0.0000000000000000
     0.0000000000000000    0.0000000000000000    3.8607443808375872
   2   1
Direct
  0.9999903297622685  0.9999806595245444  0.1769888128800446
  0.9999903297622685  0.9999806595245444  0.8230111871199554
  0.3333193404754569  0.6666386809509138  0.5000000000000000
 
  0.00000000E+00  0.00000000E+00  0.00000000E+00
  0.00000000E+00  0.00000000E+00  0.00000000E+00
  0.00000000E+00  0.00000000E+00  0.00000000E+00
