Cs1Cu1O2   [ORCC,ORCC,oS16] (STD_PRIM do
   1.00000000000000     
     2.6825583817906660   -6.0995839944041048   -0.0000000000000000
     2.6825583817906660    6.0995839944041048    0.0000000000000000
     0.0000000000000000    0.0000000000000000    5.4925536206321288
   2   2   4
Direct
  0.3168458945261780  0.6831541054738220  0.7500000000000000
  0.6831541054738220  0.3168458945261780  0.2500000000000000
  0.0017862053414326  0.9982137946585674  0.7500000000000000
  0.9982137946585674  0.0017862053414326  0.2500000000000000
  0.1007429974825486  0.8992570025174514  0.0033391311510374
  0.8992570025174514  0.1007429974825486  0.5033391311510373
  0.1007429974825486  0.8992570025174514  0.4966608688489626
  0.8992570025174514  0.1007429974825486  0.9966608688489627
 
  0.00000000E+00  0.00000000E+00  0.00000000E+00
  0.00000000E+00  0.00000000E+00  0.00000000E+00
  0.00000000E+00  0.00000000E+00  0.00000000E+00
  0.00000000E+00  0.00000000E+00  0.00000000E+00
  0.00000000E+00  0.00000000E+00  0.00000000E+00
  0.00000000E+00  0.00000000E+00  0.00000000E+00
  0.00000000E+00  0.00000000E+00  0.00000000E+00
  0.00000000E+00  0.00000000E+00  0.00000000E+00
