Hf1O1S1   [CUB,CUB,cP12] (STD_PRIM doi:1
   1.00000000000000     
     5.7023043822067772   -0.0000000000000000    0.0000000000000000
     0.0000000000000000    5.7023043822067772    0.0000000000000000
    -0.0000000000000000    0.0000000000000000    5.7023043822067772
   4   4   4
Direct
  0.3203229855918435  0.3203229855918435  0.3203229855918435
  0.1796770144081564  0.6796770144081565  0.8203229855918435
  0.6796770144081565  0.8203229855918435  0.1796770144081564
  0.8203229855918435  0.1796770144081564  0.6796770144081565
  0.9048449074190151  0.9048449074190151  0.9048449074190151
  0.5951550925809849  0.0951550925809849  0.4048449074190151
  0.0951550925809849  0.4048449074190151  0.5951550925809849
  0.4048449074190151  0.5951550925809849  0.0951550925809849
  0.5811134407357472  0.5811134407357472  0.5811134407357472
  0.9188865592642528  0.4188865592642527  0.0811134407357472
  0.4188865592642527  0.0811134407357472  0.9188865592642528
  0.0811134407357472  0.9188865592642528  0.4188865592642527
 
  0.00000000E+00  0.00000000E+00  0.00000000E+00
  0.00000000E+00  0.00000000E+00  0.00000000E+00
  0.00000000E+00  0.00000000E+00  0.00000000E+00
  0.00000000E+00  0.00000000E+00  0.00000000E+00
  0.00000000E+00  0.00000000E+00  0.00000000E+00
  0.00000000E+00  0.00000000E+00  0.00000000E+00
  0.00000000E+00  0.00000000E+00  0.00000000E+00
  0.00000000E+00  0.00000000E+00  0.00000000E+00
  0.00000000E+00  0.00000000E+00  0.00000000E+00
  0.00000000E+00  0.00000000E+00  0.00000000E+00
  0.00000000E+00  0.00000000E+00  0.00000000E+00
  0.00000000E+00  0.00000000E+00  0.00000000E+00
