Dy1Li1O2 #62 - (Dy1Li1O2_ICSD_422562) - 
   1.00000000000000     
     3.3915504377750221    0.0000000000000000    0.0000000000000000
     0.0000000000000000    5.3269282915519742    0.0000000000000000
     0.0000000000000000    0.0000000000000000   11.2344058386805088
   4   4   8
Direct
  0.7500000000000000  0.9534664199348666  0.3594682061959946
  0.2500000000000000  0.4534664199348666  0.1405317938040054
  0.2500000000000000  0.0465335800651334  0.6405317938040054
  0.7500000000000000  0.5465335800651334  0.8594682061959946
  0.7500000000000000  0.9023633749741372  0.0668967324574361
  0.2500000000000000  0.4023633749741372  0.4331032675425639
  0.2500000000000000  0.0976366250258628  0.9331032675425638
  0.7500000000000000  0.5976366250258628  0.5668967324574362
  0.7500000000000000  0.2589660525235002  0.0263861879367732
  0.2500000000000000  0.7589660525235004  0.4736138120632268
  0.2500000000000000  0.7410339474764996  0.9736138120632268
  0.7500000000000000  0.2410339474764997  0.5263861879367732
  0.7500000000000000  0.6902535242212107  0.2064529519924402
  0.2500000000000000  0.1902535242212107  0.2935470480075598
  0.2500000000000000  0.3097464757787893  0.7935470480075598
  0.7500000000000000  0.8097464757787893  0.7064529519924402
 
  0.00000000E+00  0.00000000E+00  0.00000000E+00
  0.00000000E+00  0.00000000E+00  0.00000000E+00
  0.00000000E+00  0.00000000E+00  0.00000000E+00
  0.00000000E+00  0.00000000E+00  0.00000000E+00
  0.00000000E+00  0.00000000E+00  0.00000000E+00
  0.00000000E+00  0.00000000E+00  0.00000000E+00
  0.00000000E+00  0.00000000E+00  0.00000000E+00
  0.00000000E+00  0.00000000E+00  0.00000000E+00
  0.00000000E+00  0.00000000E+00  0.00000000E+00
  0.00000000E+00  0.00000000E+00  0.00000000E+00
  0.00000000E+00  0.00000000E+00  0.00000000E+00
  0.00000000E+00  0.00000000E+00  0.00000000E+00
  0.00000000E+00  0.00000000E+00  0.00000000E+00
  0.00000000E+00  0.00000000E+00  0.00000000E+00
  0.00000000E+00  0.00000000E+00  0.00000000E+00
  0.00000000E+00  0.00000000E+00  0.00000000E+00
