Re1Si1Ti1 #189 - (Re1Si1Ti1_ICSD_650125)
    1.000000000000000     
     3.4269682929217464   -5.9356862836871374    0.0000000000000000
     3.4269682929217464    5.9356862836871374    0.0000000000000000
     0.0000000000000000    0.0000000000000000    3.2818884754397377
   3   3   3
Direct
  0.2617525309284657  0.9999991793726354  0.0000000000000000
  0.9999991793726354  0.2617525309284657  0.0000000000000000
  0.7382491860244473  0.7382491860244473  0.0000000000000000
  0.3333323065213877  0.6666652225298892  0.0000000000000000
  0.6666652225298892  0.3333323065213877  0.0000000000000000
  0.0000025580767832  0.0000025580767832  0.5000000000000000
  0.5978719397556277  0.9999979933312804  0.5000000000000000
  0.9999979933312804  0.5978719397556277  0.5000000000000000
  0.4021290834594833  0.4021290834594833  0.5000000000000000
 
  0.00000000E+00  0.00000000E+00  0.00000000E+00
  0.00000000E+00  0.00000000E+00  0.00000000E+00
  0.00000000E+00  0.00000000E+00  0.00000000E+00
  0.00000000E+00  0.00000000E+00  0.00000000E+00
  0.00000000E+00  0.00000000E+00  0.00000000E+00
  0.00000000E+00  0.00000000E+00  0.00000000E+00
  0.00000000E+00  0.00000000E+00  0.00000000E+00
  0.00000000E+00  0.00000000E+00  0.00000000E+00
  0.00000000E+00  0.00000000E+00  0.00000000E+00
