Ga1Mg1Y1   [HEX,HEX,hP9] (STD_PRIM doi:1
   1.00000000000000     
     3.6466293619047621   -6.3161473311915231    0.0000000000000000
     3.6462901138344348    6.3159514662267977    0.0000000000000000
     0.0000000000000000    0.0000000000000000    4.4360907362262862
   3   3   3
Direct
  0.6666718456632728  0.3333431445798631  0.5000000000000000
  0.3333287010834096  0.6666568554201369  0.5000000000000000
  0.0000107300122082 -0.0000000000000000  0.0000000000000000
  0.0000059365547026  0.7567057850503162  0.5000000000000000
  0.2433001515043864  0.2432942149496838  0.5000000000000000
  0.7566862868933898  0.0000000000000000  0.5000000000000000
 -0.0000041585534169  0.4263774082954369  0.0000000000000000
  0.5736184331511390  0.5736225917045631  0.0000000000000000
  0.4263820736909085  0.0000000000000000  0.0000000000000000
 
  0.00000000E+00  0.00000000E+00  0.00000000E+00
  0.00000000E+00  0.00000000E+00  0.00000000E+00
  0.00000000E+00  0.00000000E+00  0.00000000E+00
  0.00000000E+00  0.00000000E+00  0.00000000E+00
  0.00000000E+00  0.00000000E+00  0.00000000E+00
  0.00000000E+00  0.00000000E+00  0.00000000E+00
  0.00000000E+00  0.00000000E+00  0.00000000E+00
  0.00000000E+00  0.00000000E+00  0.00000000E+00
  0.00000000E+00  0.00000000E+00  0.00000000E+00
