S2Ta1   [HEX,HEX,hP6] (STD_PRIM doi:10.1
   1.00000000000000     
     1.6818586727957965   -2.9130646724326827    0.0000000000000000
     1.6815487618484957    2.9128857452638326    0.0000000000000000
     0.0000000000000000   -0.0000000000000000   14.2232526120133898
   4   2
Direct
  0.6666714964395206  0.3333429928790341  0.1395388773713627
  0.3333285035604794  0.6666570071209659  0.6395388773713627
  0.3333285035604794  0.6666570071209659  0.8604611226286373
  0.6666714964395206  0.3333429928790341  0.3604611226286373
  0.0000313357773932  0.0000626715547863  0.2500000000000000
  0.9999686642226068  0.9999373284452138  0.7500000000000000
 
  0.00000000E+00  0.00000000E+00  0.00000000E+00
  0.00000000E+00  0.00000000E+00  0.00000000E+00
  0.00000000E+00  0.00000000E+00  0.00000000E+00
  0.00000000E+00  0.00000000E+00  0.00000000E+00
  0.00000000E+00  0.00000000E+00  0.00000000E+00
  0.00000000E+00  0.00000000E+00  0.00000000E+00
