Al2Hf3   [TET,TET,tP20] (STD_PRIM doi:10
   1.00000000000000     
     7.5844565381901186    0.0000000000000000    0.0000000000000000
     0.0000000000000000    7.5844565381901186    0.0000000000000000
     0.0000000000000000    0.0000000000000000    6.8844933017300995
   8  12
Direct
  0.1213852800983314  0.1213852800983314  0.2110535463559269
  0.8786147199016686  0.8786147199016686  0.2110535463559269
  0.3786147199016687  0.6213852800983314  0.7110535463559269
  0.6213852800983314  0.3786147199016687  0.7110535463559269
  0.3786147199016687  0.6213852800983314  0.2889464536440732
  0.6213852800983314  0.3786147199016687  0.2889464536440732
  0.1213852800983314  0.1213852800983314  0.7889464536440731
  0.8786147199016686  0.8786147199016686  0.7889464536440731
  0.3446088214949250  0.3446088214949250 -0.0000000000000000
  0.6553911785050749  0.6553911785050749  0.0000000000000000
  0.1553911785050750  0.8446088214949251  0.5000000000000000
  0.8446088214949251  0.1553911785050750  0.5000000000000000
  0.2016514237265812  0.7983485762734188  0.0000000000000000
  0.7983485762734188  0.2016514237265812 -0.0000000000000000
  0.7016514237265812  0.7016514237265812  0.5000000000000000
  0.2983485762734188  0.2983485762734188  0.5000000000000000
  0.0000000000000000  0.5000000000000000  0.2500000000000000
  0.0000000000000000  0.5000000000000000  0.7500000000000000
  0.5000000000000000  0.0000000000000000  0.2500000000000000
  0.5000000000000000 -0.0000000000000000  0.7500000000000000
 
  0.00000000E+00  0.00000000E+00  0.00000000E+00
  0.00000000E+00  0.00000000E+00  0.00000000E+00
  0.00000000E+00  0.00000000E+00  0.00000000E+00
  0.00000000E+00  0.00000000E+00  0.00000000E+00
  0.00000000E+00  0.00000000E+00  0.00000000E+00
  0.00000000E+00  0.00000000E+00  0.00000000E+00
  0.00000000E+00  0.00000000E+00  0.00000000E+00
  0.00000000E+00  0.00000000E+00  0.00000000E+00
  0.00000000E+00  0.00000000E+00  0.00000000E+00
  0.00000000E+00  0.00000000E+00  0.00000000E+00
  0.00000000E+00  0.00000000E+00  0.00000000E+00
  0.00000000E+00  0.00000000E+00  0.00000000E+00
  0.00000000E+00  0.00000000E+00  0.00000000E+00
  0.00000000E+00  0.00000000E+00  0.00000000E+00
  0.00000000E+00  0.00000000E+00  0.00000000E+00
  0.00000000E+00  0.00000000E+00  0.00000000E+00
  0.00000000E+00  0.00000000E+00  0.00000000E+00
  0.00000000E+00  0.00000000E+00  0.00000000E+00
  0.00000000E+00  0.00000000E+00  0.00000000E+00
  0.00000000E+00  0.00000000E+00  0.00000000E+00
