O7P2Th1   [CUB,CUB,cP40] (STD_PRIM doi:1
   1.00000000000000     
     9.2051057548253485    0.0000000000000000   -0.0000000000000000
     0.0000000000000000    9.2051057548253485    0.0000000000000000
    -0.0000000000000000   -0.0000000000000000    9.2051057548253485
  28   8   4
Direct
  0.5000000000000000  0.5000000000000000  0.5000000000000000
  0.0000000000000000  0.5000000000000000  0.0000000000000000
  0.5000000000000000  0.0000000000000000  0.0000000000000000
  0.0000000000000000  0.0000000000000000  0.5000000000000000
  0.2563718031932141  0.5689656989360149  0.9446558197301445
  0.2436281968067859  0.4310343010639851  0.4446558197301445
  0.7436281968067858  0.0689656989360149  0.5553441802698555
  0.7563718031932142  0.9310343010639851  0.0553441802698555
  0.9446558197301445  0.2563718031932141  0.5689656989360149
  0.4446558197301445  0.2436281968067859  0.4310343010639851
  0.5553441802698555  0.7436281968067858  0.0689656989360149
  0.0553441802698555  0.7563718031932142  0.9310343010639851
  0.5689656989360149  0.9446558197301445  0.2563718031932141
  0.4310343010639851  0.4446558197301445  0.2436281968067859
  0.0689656989360149  0.5553441802698555  0.7436281968067858
  0.9310343010639851  0.0553441802698555  0.7563718031932142
  0.7436281968067858  0.4310343010639851  0.0553441802698555
  0.7563718031932142  0.5689656989360149  0.5553441802698555
  0.2563718031932141  0.9310343010639851  0.4446558197301445
  0.2436281968067859  0.0689656989360149  0.9446558197301445
  0.0553441802698555  0.7436281968067858  0.4310343010639851
  0.5553441802698555  0.7563718031932142  0.5689656989360149
  0.4446558197301445  0.2563718031932141  0.9310343010639851
  0.9446558197301445  0.2436281968067859  0.0689656989360149
  0.4310343010639851  0.0553441802698555  0.7436281968067858
  0.5689656989360149  0.5553441802698555  0.7563718031932142
  0.9310343010639851  0.4446558197301445  0.2563718031932141
  0.0689656989360149  0.9446558197301445  0.2436281968067859
  0.4004384102135543  0.4004384102135543  0.4004384102135543
  0.0995615897864457  0.5995615897864457  0.9004384102135543
  0.5995615897864457  0.9004384102135543  0.0995615897864457
  0.9004384102135543  0.0995615897864457  0.5995615897864457
  0.5995615897864457  0.5995615897864457  0.5995615897864457
  0.9004384102135543  0.4004384102135543  0.0995615897864457
  0.4004384102135543  0.0995615897864457  0.9004384102135543
  0.0995615897864457  0.9004384102135543  0.4004384102135543
  0.0000000000000000  0.0000000000000000  0.0000000000000000
  0.5000000000000000  0.0000000000000000  0.5000000000000000
  0.0000000000000000  0.5000000000000000  0.5000000000000000
  0.5000000000000000  0.5000000000000000  0.0000000000000000
 
  0.00000000E+00  0.00000000E+00  0.00000000E+00
  0.00000000E+00  0.00000000E+00  0.00000000E+00
  0.00000000E+00  0.00000000E+00  0.00000000E+00
  0.00000000E+00  0.00000000E+00  0.00000000E+00
  0.00000000E+00  0.00000000E+00  0.00000000E+00
  0.00000000E+00  0.00000000E+00  0.00000000E+00
  0.00000000E+00  0.00000000E+00  0.00000000E+00
  0.00000000E+00  0.00000000E+00  0.00000000E+00
  0.00000000E+00  0.00000000E+00  0.00000000E+00
  0.00000000E+00  0.00000000E+00  0.00000000E+00
  0.00000000E+00  0.00000000E+00  0.00000000E+00
  0.00000000E+00  0.00000000E+00  0.00000000E+00
  0.00000000E+00  0.00000000E+00  0.00000000E+00
  0.00000000E+00  0.00000000E+00  0.00000000E+00
  0.00000000E+00  0.00000000E+00  0.00000000E+00
  0.00000000E+00  0.00000000E+00  0.00000000E+00
  0.00000000E+00  0.00000000E+00  0.00000000E+00
  0.00000000E+00  0.00000000E+00  0.00000000E+00
  0.00000000E+00  0.00000000E+00  0.00000000E+00
  0.00000000E+00  0.00000000E+00  0.00000000E+00
  0.00000000E+00  0.00000000E+00  0.00000000E+00
  0.00000000E+00  0.00000000E+00  0.00000000E+00
  0.00000000E+00  0.00000000E+00  0.00000000E+00
  0.00000000E+00  0.00000000E+00  0.00000000E+00
  0.00000000E+00  0.00000000E+00  0.00000000E+00
  0.00000000E+00  0.00000000E+00  0.00000000E+00
  0.00000000E+00  0.00000000E+00  0.00000000E+00
  0.00000000E+00  0.00000000E+00  0.00000000E+00
  0.00000000E+00  0.00000000E+00  0.00000000E+00
  0.00000000E+00  0.00000000E+00  0.00000000E+00
  0.00000000E+00  0.00000000E+00  0.00000000E+00
  0.00000000E+00  0.00000000E+00  0.00000000E+00
  0.00000000E+00  0.00000000E+00  0.00000000E+00
  0.00000000E+00  0.00000000E+00  0.00000000E+00
  0.00000000E+00  0.00000000E+00  0.00000000E+00
  0.00000000E+00  0.00000000E+00  0.00000000E+00
  0.00000000E+00  0.00000000E+00  0.00000000E+00
  0.00000000E+00  0.00000000E+00  0.00000000E+00
  0.00000000E+00  0.00000000E+00  0.00000000E+00
  0.00000000E+00  0.00000000E+00  0.00000000E+00
