Li1N1Zn1   [FCC,FCC,cF12] (STD_PRIM doi:
   1.22474500000000     
     0.0000000000000000    1.9775710762155891    1.9775710762155891
     1.9775710762155891    0.0000000000000000    1.9775710762155891
     1.9775710762155891    1.9775710762155891    0.0000000000000000
   1   1   1
Direct
  0.2500000000000000  0.2500000000000000  0.2500000000000000
  0.0000000000000000  0.0000000000000000  0.0000000000000000
  0.7500000000000000  0.7500000000000000  0.7500000000000000
 
  0.00000000E+00  0.00000000E+00  0.00000000E+00
  0.00000000E+00  0.00000000E+00  0.00000000E+00
  0.00000000E+00  0.00000000E+00  0.00000000E+00
