Ge1Nb1Rh1   [ORC,ORC,oP12] (STD_PRIM doi
   1.00000000000000     
     3.8602474917581615    0.0000000000000000    0.0000000000000000
     0.0000000000000000    6.4985471384165976    0.0000000000000000
     0.0000000000000000    0.0000000000000000    7.4923699268581814
   4   4   4
Direct
  0.2500000000000000  0.7388944552233103  0.6236345649270266
  0.7500000000000000  0.7611055447766897  0.1236345649270266
  0.7500000000000000  0.2611055447766896  0.3763654350729734
  0.2500000000000000  0.2388944552233104  0.8763654350729734
  0.2500000000000000  0.9721367767226755  0.3211342935534504
  0.7500000000000000  0.5278632232773245  0.8211342935534504
  0.7500000000000000  0.0278632232773244  0.6788657064465496
  0.2500000000000000  0.4721367767226756  0.1788657064465496
  0.2500000000000000  0.3561399099988614  0.5622740509401435
  0.7500000000000000  0.1438600900011386  0.0622740509401436
  0.7500000000000000  0.6438600900011386  0.4377259490598564
  0.2500000000000000  0.8561399099988614  0.9377259490598565
 
  0.00000000E+00  0.00000000E+00  0.00000000E+00
  0.00000000E+00  0.00000000E+00  0.00000000E+00
  0.00000000E+00  0.00000000E+00  0.00000000E+00
  0.00000000E+00  0.00000000E+00  0.00000000E+00
  0.00000000E+00  0.00000000E+00  0.00000000E+00
  0.00000000E+00  0.00000000E+00  0.00000000E+00
  0.00000000E+00  0.00000000E+00  0.00000000E+00
  0.00000000E+00  0.00000000E+00  0.00000000E+00
  0.00000000E+00  0.00000000E+00  0.00000000E+00
  0.00000000E+00  0.00000000E+00  0.00000000E+00
  0.00000000E+00  0.00000000E+00  0.00000000E+00
  0.00000000E+00  0.00000000E+00  0.00000000E+00
