S4Tl3V1   [BCC,BCC,cI16] (STD_PRIM doi:1
   1.00000000000000     
    -3.8423376933801006    3.8423376933801006    3.8423376933801006
     3.8423376933801006   -3.8423376933801006    3.8423376933801006
     3.8423376933801006    3.8423376933801006   -3.8423376933801006
   4   3   1
Direct
  0.6726385406711106  0.6726385406711106  0.6726385406711106
 -0.0000000000000000  0.0000000000000000  0.3273614593288894
  0.3273614593288894  0.0000000000000000  0.0000000000000000
 -0.0000000000000000  0.3273614593288894 -0.0000000000000000
  0.5000000000000000  0.0000000000000000  0.5000000000000000
  0.0000000000000000  0.5000000000000000  0.5000000000000000
  0.5000000000000000  0.5000000000000000  0.0000000000000000
 -0.0000000000000000 -0.0000000000000000 -0.0000000000000000
 
  0.00000000E+00  0.00000000E+00  0.00000000E+00
  0.00000000E+00  0.00000000E+00  0.00000000E+00
  0.00000000E+00  0.00000000E+00  0.00000000E+00
  0.00000000E+00  0.00000000E+00  0.00000000E+00
  0.00000000E+00  0.00000000E+00  0.00000000E+00
  0.00000000E+00  0.00000000E+00  0.00000000E+00
  0.00000000E+00  0.00000000E+00  0.00000000E+00
  0.00000000E+00  0.00000000E+00  0.00000000E+00
