Al3C4Hf2 #194 - (Al3C4Hf2_ICSD_161588) -
    1.000000000000000     
     1.6678158217080559   -2.8886784399671184    0.0000000000000000
     1.6678158217080559    2.8886784399671184    0.0000000000000000
     0.0000000000000000    0.0000000000000000   22.1551584959570356
   6   8   4
Direct
  0.9998874785054760  0.0001125214945240  0.1584964600833502
  0.0001125214945240  0.9998874785054760  0.6584964600833502
  0.0001125214945240  0.9998874785054760  0.8415035399166498
  0.9998874785054760  0.0001125214945240  0.3415035399166498
  0.3332251025058200  0.6667748974941800  0.2500000000000000
  0.6667748974941800  0.3332251025058200  0.7500000000000000
  0.0000000000000000  0.0000000000000000  0.0000000000000000
  0.0000000000000000  0.0000000000000000  0.5000000000000000
  0.3332390507354577  0.6667609492645423  0.1267860001333710
  0.6667609492645423  0.3332390507354577  0.6267860001333710
  0.6667609492645423  0.3332390507354577  0.8732139998666290
  0.3332390507354577  0.6667609492645423  0.3732139998666290
  0.9998804837997294  0.0001195162002706  0.2500000000000000
  0.0001195162002706  0.9998804837997294  0.7500000000000000
  0.6666212759476566  0.3333787240523434  0.0576794780620204
  0.3333787240523434  0.6666212759476566  0.5576794780620203
  0.3333787240523434  0.6666212759476566  0.9423205219379797
  0.6666212759476566  0.3333787240523434  0.4423205219379797
 
  0.00000000E+00  0.00000000E+00  0.00000000E+00
  0.00000000E+00  0.00000000E+00  0.00000000E+00
  0.00000000E+00  0.00000000E+00  0.00000000E+00
  0.00000000E+00  0.00000000E+00  0.00000000E+00
  0.00000000E+00  0.00000000E+00  0.00000000E+00
  0.00000000E+00  0.00000000E+00  0.00000000E+00
  0.00000000E+00  0.00000000E+00  0.00000000E+00
  0.00000000E+00  0.00000000E+00  0.00000000E+00
  0.00000000E+00  0.00000000E+00  0.00000000E+00
  0.00000000E+00  0.00000000E+00  0.00000000E+00
  0.00000000E+00  0.00000000E+00  0.00000000E+00
  0.00000000E+00  0.00000000E+00  0.00000000E+00
  0.00000000E+00  0.00000000E+00  0.00000000E+00
  0.00000000E+00  0.00000000E+00  0.00000000E+00
  0.00000000E+00  0.00000000E+00  0.00000000E+00
  0.00000000E+00  0.00000000E+00  0.00000000E+00
  0.00000000E+00  0.00000000E+00  0.00000000E+00
  0.00000000E+00  0.00000000E+00  0.00000000E+00
