Mg1Se1 #186 - (Mg1Se1_ICSD_658986) - Mg1
    1.000000000000000     
     2.1283911212572515   -3.6866742710245073    0.0000000000000000
     2.1283911212572515    3.6866742710245073    0.0000000000000000
     0.0000000000000000    0.0000000000000000    6.8626834316469969
   2   2
Direct
  0.3333407436528423  0.6666592563471577  0.9979809786987258
  0.6666592563471577  0.3333407436528423  0.4979809786987258
  0.3333377504408619  0.6666622495591381  0.3770190213012742
  0.6666622495591381  0.3333377504408619  0.8770190213012742
 
  0.00000000E+00  0.00000000E+00  0.00000000E+00
  0.00000000E+00  0.00000000E+00  0.00000000E+00
  0.00000000E+00  0.00000000E+00  0.00000000E+00
  0.00000000E+00  0.00000000E+00  0.00000000E+00
