N2Te1Th2   [BCT,BCT2,tI10] (STD_PRIM doi
   1.00000000000000     
    -2.1227384686141066    2.1227384686141066    6.7464921159031030
     2.1227384686141066   -2.1227384686141066    6.7464921159031030
     2.1227384686141066    2.1227384686141066   -6.7464921159031030
   2   1   2
Direct
  0.7500000000000000  0.2500000000000000  0.5000000000000000
  0.2500000000000000  0.7500000000000000  0.5000000000000000
 -0.0000000000000000 -0.0000000000000000 -0.0000000000000000
  0.3381057583637487  0.3381057583637487  0.0000000000000000
  0.6618942416362513  0.6618942416362513 -0.0000000000000000
 
  0.00000000E+00  0.00000000E+00  0.00000000E+00
  0.00000000E+00  0.00000000E+00  0.00000000E+00
  0.00000000E+00  0.00000000E+00  0.00000000E+00
  0.00000000E+00  0.00000000E+00  0.00000000E+00
  0.00000000E+00  0.00000000E+00  0.00000000E+00
