Mg1O6Ta2   [TET,TET,tP18] (STD_PRIM doi:
   1.00000000000000     
     4.7873412043809509   -0.0000000000000000    0.0000000000000000
    -0.0000000000000000    4.7873412043809509    0.0000000000000000
     0.0000000000000000    0.0000000000000000    9.3095860082346320
   2  12   4
Direct
  0.0000000000000000  0.0000000000000000  0.0000000000000000
  0.5000000000000000  0.5000000000000000  0.5000000000000000
  0.3109456963019792  0.3109456963019792  0.0000000000000000
  0.6890543036980207  0.6890543036980207  0.0000000000000000
  0.1890543036980208  0.8109456963019793  0.5000000000000000
  0.8109456963019793  0.1890543036980208  0.5000000000000000
  0.2977597316262758  0.2977597316262758  0.3241889156356410
  0.7022402683737242  0.7022402683737242  0.3241889156356410
  0.2022402683737242  0.7977597316262758  0.8241889156356410
  0.7977597316262758  0.2022402683737242  0.8241889156356410
  0.2022402683737242  0.7977597316262758  0.1758110843643590
  0.7977597316262758  0.2022402683737242  0.1758110843643590
  0.2977597316262758  0.2977597316262758  0.6758110843643590
  0.7022402683737242  0.7022402683737242  0.6758110843643590
  0.0000000000000000 -0.0000000000000000  0.3320542249473656
  0.5000000000000000  0.5000000000000000  0.8320542249473656
  0.5000000000000000  0.5000000000000000  0.1679457750526344
 -0.0000000000000000  0.0000000000000000  0.6679457750526344
 
  0.00000000E+00  0.00000000E+00  0.00000000E+00
  0.00000000E+00  0.00000000E+00  0.00000000E+00
  0.00000000E+00  0.00000000E+00  0.00000000E+00
  0.00000000E+00  0.00000000E+00  0.00000000E+00
  0.00000000E+00  0.00000000E+00  0.00000000E+00
  0.00000000E+00  0.00000000E+00  0.00000000E+00
  0.00000000E+00  0.00000000E+00  0.00000000E+00
  0.00000000E+00  0.00000000E+00  0.00000000E+00
  0.00000000E+00  0.00000000E+00  0.00000000E+00
  0.00000000E+00  0.00000000E+00  0.00000000E+00
  0.00000000E+00  0.00000000E+00  0.00000000E+00
  0.00000000E+00  0.00000000E+00  0.00000000E+00
  0.00000000E+00  0.00000000E+00  0.00000000E+00
  0.00000000E+00  0.00000000E+00  0.00000000E+00
  0.00000000E+00  0.00000000E+00  0.00000000E+00
  0.00000000E+00  0.00000000E+00  0.00000000E+00
  0.00000000E+00  0.00000000E+00  0.00000000E+00
  0.00000000E+00  0.00000000E+00  0.00000000E+00
