Ca1Hg1Sn1   [HEX,HEX,hP6] (STD_PRIM doi:
   1.00000000000000     
     2.4566026990849106   -4.2549606888258964   -0.0000000000000000
     2.4564445536034873    4.2548693834896270   -0.0000000000000000
     0.0000000000000000    0.0000000000000000    7.8858128773841587
   2   2   2
Direct
  0.0000041594162207  0.0000083188324415  0.2496287475911179
  0.9999958405837792  0.9999916811675585  0.7496287475911180
  0.6666670564079218  0.3333341128158434  0.0639807630680093
  0.3333329435920783  0.6666658871841566  0.5639807630680093
  0.6666657182992974  0.3333314365985879  0.4613904893408713
  0.3333342817007025  0.6666685634014121  0.9613904893408713
 
  0.00000000E+00  0.00000000E+00  0.00000000E+00
  0.00000000E+00  0.00000000E+00  0.00000000E+00
  0.00000000E+00  0.00000000E+00  0.00000000E+00
  0.00000000E+00  0.00000000E+00  0.00000000E+00
  0.00000000E+00  0.00000000E+00  0.00000000E+00
  0.00000000E+00  0.00000000E+00  0.00000000E+00
