Sb4Ta5   [BCT,BCT1,tI18] (STD_PRIM doi:1
   1.00000000000000     
    -5.2336828016856503    5.2336818508445369    1.7064673694697228
     5.2336828016856503   -5.2336818508445369    1.7064673694697228
     5.2336818508445369    5.2336828016856503   -1.7064673694697228
   4   5
Direct
  0.3641159975897347  0.6770162589635520  0.0411322565532795
  0.6358840024102654  0.3229837410364480  0.9588677434467204
  0.3229837410364480  0.3641159975897347  0.6870997386261756
  0.6770162589635520  0.6358840024102654  0.3129002613738244
 -0.0000000000000000 -0.0000000000000000 -0.0000000000000000
  0.3463619384761763  0.9540494776545347  0.3004114161307112
  0.6536380615238238  0.0459505223454652  0.6995885838692889
  0.0459505223454652  0.3463619384761763  0.3923124608216415
  0.9540494776545347  0.6536380615238238  0.6076875391783586
 
  0.00000000E+00  0.00000000E+00  0.00000000E+00
  0.00000000E+00  0.00000000E+00  0.00000000E+00
  0.00000000E+00  0.00000000E+00  0.00000000E+00
  0.00000000E+00  0.00000000E+00  0.00000000E+00
  0.00000000E+00  0.00000000E+00  0.00000000E+00
  0.00000000E+00  0.00000000E+00  0.00000000E+00
  0.00000000E+00  0.00000000E+00  0.00000000E+00
  0.00000000E+00  0.00000000E+00  0.00000000E+00
  0.00000000E+00  0.00000000E+00  0.00000000E+00
