Al1Er1   [ORC,ORC,oP16] (STD_PRIM doi:10
   1.00000000000000     
     5.5765090687612604    0.0000000000000000    0.0000000000000000
     0.0000000000000000    5.8104372569110607    0.0000000000000000
     0.0000000000000000    0.0000000000000000   11.3289792413590344
   8   8
Direct
  0.0000000000000000  0.9335728237430578  0.7500000000000000
  0.5000000000000000  0.0664271762569422  0.2500000000000000
  0.0000000000000000  0.0664271762569422  0.2500000000000000
  0.5000000000000000  0.9335728237430578  0.7500000000000000
  0.7500000000000000  0.6613813875690840  0.9024042790661402
  0.2500000000000000  0.3386186124309159  0.0975957209338598
  0.7500000000000000  0.3386186124309159  0.4024042790661402
  0.2500000000000000  0.6613813875690840  0.5975957209338598
  0.7500000000000000  0.1623849214896957  0.9832362829584982
  0.2500000000000000  0.8376150785103044  0.0167637170415018
  0.7500000000000000  0.8376150785103044  0.4832362829584982
  0.2500000000000000  0.1623849214896957  0.5167637170415018
  0.7500000000000000  0.4000816079177728  0.6685465052522537
  0.2500000000000000  0.5999183920822273  0.3314534947477463
  0.7500000000000000  0.5999183920822273  0.1685465052522537
  0.2500000000000000  0.4000816079177728  0.8314534947477463
 
  0.00000000E+00  0.00000000E+00  0.00000000E+00
  0.00000000E+00  0.00000000E+00  0.00000000E+00
  0.00000000E+00  0.00000000E+00  0.00000000E+00
  0.00000000E+00  0.00000000E+00  0.00000000E+00
  0.00000000E+00  0.00000000E+00  0.00000000E+00
  0.00000000E+00  0.00000000E+00  0.00000000E+00
  0.00000000E+00  0.00000000E+00  0.00000000E+00
  0.00000000E+00  0.00000000E+00  0.00000000E+00
  0.00000000E+00  0.00000000E+00  0.00000000E+00
  0.00000000E+00  0.00000000E+00  0.00000000E+00
  0.00000000E+00  0.00000000E+00  0.00000000E+00
  0.00000000E+00  0.00000000E+00  0.00000000E+00
  0.00000000E+00  0.00000000E+00  0.00000000E+00
  0.00000000E+00  0.00000000E+00  0.00000000E+00
  0.00000000E+00  0.00000000E+00  0.00000000E+00
  0.00000000E+00  0.00000000E+00  0.00000000E+00
