Dy1Ga2Ni1   [ORCC,ORCC,oS16] (STD_PRIM d
   1.00000000000000     
     2.0591483076331545   -5.0038134908797041    0.0000000000000000
     2.0591483076331545    5.0038134908797041    0.0000000000000000
     0.0000000000000000    0.0000000000000000    6.6318521711429339
   2   4   2
Direct
  0.4283680429040401  0.5716319570959599  0.7500000000000000
  0.5716319570959599  0.4283680429040401  0.2500000000000000
  0.1440061692887949  0.8559938307112052  0.9468218925588220
  0.8559938307112052  0.1440061692887949  0.4468218925588219
  0.1440061692887949  0.8559938307112052  0.5531781074411780
  0.8559938307112052  0.1440061692887949  0.0531781074411781
  0.7095234504711454  0.2904765495288547  0.7500000000000000
  0.2904765495288547  0.7095234504711454  0.2500000000000000
 
  0.00000000E+00  0.00000000E+00  0.00000000E+00
  0.00000000E+00  0.00000000E+00  0.00000000E+00
  0.00000000E+00  0.00000000E+00  0.00000000E+00
  0.00000000E+00  0.00000000E+00  0.00000000E+00
  0.00000000E+00  0.00000000E+00  0.00000000E+00
  0.00000000E+00  0.00000000E+00  0.00000000E+00
  0.00000000E+00  0.00000000E+00  0.00000000E+00
  0.00000000E+00  0.00000000E+00  0.00000000E+00
