Si1Th1   [ORC,ORC,oP8] (STD_PRIM doi:10.
   1.00000000000000     
     4.2149478159569203    0.0000000000000000    0.0000000000000000
     0.0000000000000000    6.0150463929926756    0.0000000000000000
     0.0000000000000000    0.0000000000000000    8.0419875782568564
   4   4
Direct
  0.7500000000000000  0.3756063185601732  0.0377775962771071
  0.2500000000000000  0.8756063185601731  0.4622224037228929
  0.2500000000000000  0.6243936814398269  0.9622224037228930
  0.7500000000000000  0.1243936814398268  0.5377775962771070
  0.7500000000000000  0.8772123647784349  0.1783502415366736
  0.2500000000000000  0.3772123647784349  0.3216497584633264
  0.2500000000000000  0.1227876352215651  0.8216497584633263
  0.7500000000000000  0.6227876352215651  0.6783502415366737
 
  0.00000000E+00  0.00000000E+00  0.00000000E+00
  0.00000000E+00  0.00000000E+00  0.00000000E+00
  0.00000000E+00  0.00000000E+00  0.00000000E+00
  0.00000000E+00  0.00000000E+00  0.00000000E+00
  0.00000000E+00  0.00000000E+00  0.00000000E+00
  0.00000000E+00  0.00000000E+00  0.00000000E+00
  0.00000000E+00  0.00000000E+00  0.00000000E+00
  0.00000000E+00  0.00000000E+00  0.00000000E+00
