As2Ba2Cd1   [ORCC,ORCC,oS20] (STD_PRIM d
   1.00000000000000     
     2.3240450066855809   -8.8094480261512160   -0.0000013461804672
     2.3240450066855809    8.8094480261512160    0.0000013461804672
     0.0000000000000000    0.0000004828913181    8.2065544249176696
   4   4   2
Direct
  0.0606532584581242  0.9393467415418759  0.0695651260268621
  0.9393472729004342  0.0606527270995658  0.5695590220610947
  0.3280920898000915  0.6719079101999085  0.9997126128483730
  0.6719070686301523  0.3280929313698477  0.4997117449891940
  0.2958712818574209  0.7041287181425792  0.6098805288438667
  0.7041299971900788  0.2958700028099211  0.1098882361700298
  0.4618398965508448  0.5381601034491552  0.2678037099493403
  0.5381609756651170  0.4618390243348829  0.7678082486065568
  0.0946047605223831  0.9053952394776169  0.4189842184055489
  0.9053933984253459  0.0946066015746540  0.9189765520991338
 
  0.00000000E+00  0.00000000E+00  0.00000000E+00
  0.00000000E+00  0.00000000E+00  0.00000000E+00
  0.00000000E+00  0.00000000E+00  0.00000000E+00
  0.00000000E+00  0.00000000E+00  0.00000000E+00
  0.00000000E+00  0.00000000E+00  0.00000000E+00
  0.00000000E+00  0.00000000E+00  0.00000000E+00
  0.00000000E+00  0.00000000E+00  0.00000000E+00
  0.00000000E+00  0.00000000E+00  0.00000000E+00
  0.00000000E+00  0.00000000E+00  0.00000000E+00
  0.00000000E+00  0.00000000E+00  0.00000000E+00
