Er1   [HEX,HEX,hP2] (STD_PRIM doi:10.101
   1.00000000000000     
     1.7895909003877124   -3.0996623642344536   -0.0000000000000000
     1.7894964907071504    3.0996078567799672    0.0000000000000000
    -0.0000000000000000    0.0000000000000000    5.5566046805976343
   2
Direct
  0.6666865022866745  0.3333730045733562  0.2500000000000000
  0.3333134977133254  0.6666269954266437  0.7500000000000000
 
  0.00000000E+00  0.00000000E+00  0.00000000E+00
  0.00000000E+00  0.00000000E+00  0.00000000E+00
