Ce1O3Sr1   [ORC,ORC,oP20] (STD_PRIM doi:
   1.00000000000000     
     6.0702183988374170   -0.0000000000000000    0.0000000000000000
    -0.0000000000000000    6.2395610007423619    0.0000000000000000
     0.0000000000000000    0.0000000000000000    8.7030081885354260
   4  12   4
Direct
  0.5000000000000000  0.0000000000000000  0.0000000000000000
  0.0000000000000000  0.5000000000000000  0.0000000000000000
  0.5000000000000000  0.0000000000000000  0.5000000000000000
  0.0000000000000000  0.5000000000000000  0.5000000000000000
  0.3896389723690935  0.0477953464419206  0.7500000000000000
  0.8896389723690934  0.4522046535580794  0.2500000000000000
  0.6103610276309066  0.9522046535580794  0.2500000000000000
  0.1103610276309066  0.5477953464419206  0.7500000000000000
  0.8004830601662690  0.2005498469808304  0.5593690548594377
  0.3004830601662691  0.2994501530191696  0.4406309451405623
  0.1995169398337309  0.7994501530191696  0.0593690548594377
  0.6995169398337310  0.7005498469808304  0.9406309451405623
  0.1995169398337309  0.7994501530191696  0.4406309451405623
  0.6995169398337310  0.7005498469808304  0.5593690548594377
  0.8004830601662690  0.2005498469808304  0.9406309451405623
  0.3004830601662691  0.2994501530191696  0.0593690548594377
  0.9866303246121028  0.9536666928199395  0.7500000000000000
  0.4866303246121028  0.5463333071800605  0.2500000000000000
  0.0133696753878973  0.0463333071800605  0.2500000000000000
  0.5133696753878972  0.4536666928199395  0.7500000000000000
 
  0.00000000E+00  0.00000000E+00  0.00000000E+00
  0.00000000E+00  0.00000000E+00  0.00000000E+00
  0.00000000E+00  0.00000000E+00  0.00000000E+00
  0.00000000E+00  0.00000000E+00  0.00000000E+00
  0.00000000E+00  0.00000000E+00  0.00000000E+00
  0.00000000E+00  0.00000000E+00  0.00000000E+00
  0.00000000E+00  0.00000000E+00  0.00000000E+00
  0.00000000E+00  0.00000000E+00  0.00000000E+00
  0.00000000E+00  0.00000000E+00  0.00000000E+00
  0.00000000E+00  0.00000000E+00  0.00000000E+00
  0.00000000E+00  0.00000000E+00  0.00000000E+00
  0.00000000E+00  0.00000000E+00  0.00000000E+00
  0.00000000E+00  0.00000000E+00  0.00000000E+00
  0.00000000E+00  0.00000000E+00  0.00000000E+00
  0.00000000E+00  0.00000000E+00  0.00000000E+00
  0.00000000E+00  0.00000000E+00  0.00000000E+00
  0.00000000E+00  0.00000000E+00  0.00000000E+00
  0.00000000E+00  0.00000000E+00  0.00000000E+00
  0.00000000E+00  0.00000000E+00  0.00000000E+00
  0.00000000E+00  0.00000000E+00  0.00000000E+00
