Au1Sn4   [ORCC,ORCC,oS20] (STD_PRIM doi:
   1.00000000000000     
     3.3630666757895473   -6.0299181867599030    0.0000000000000000
     3.3630666757895473    6.0299181867599030    0.0000000000000000
     0.0000000000000000    0.0000000000000000    6.7149011509578482
   2   8
Direct
  0.0000000000000000  0.0000000000000000  0.0000000000000000
  0.5000000000000000  0.5000000000000000  0.5000000000000000
  0.4667135201512593  0.2072101085024087  0.8308594346523108
  0.7927898914975913  0.5332864798487407  0.1691405653476892
  0.2927898914975913  0.0332864798487407  0.3308594346523108
  0.9667135201512593  0.7072101085024087  0.6691405653476892
  0.0332864798487407  0.2927898914975913  0.6691405653476892
  0.7072101085024087  0.9667135201512593  0.3308594346523108
  0.2072101085024087  0.4667135201512593  0.1691405653476892
  0.5332864798487407  0.7927898914975913  0.8308594346523108
 
  0.00000000E+00  0.00000000E+00  0.00000000E+00
  0.00000000E+00  0.00000000E+00  0.00000000E+00
  0.00000000E+00  0.00000000E+00  0.00000000E+00
  0.00000000E+00  0.00000000E+00  0.00000000E+00
  0.00000000E+00  0.00000000E+00  0.00000000E+00
  0.00000000E+00  0.00000000E+00  0.00000000E+00
  0.00000000E+00  0.00000000E+00  0.00000000E+00
  0.00000000E+00  0.00000000E+00  0.00000000E+00
  0.00000000E+00  0.00000000E+00  0.00000000E+00
  0.00000000E+00  0.00000000E+00  0.00000000E+00
