Hf1Ni1Si1   [ORC,ORC,oP12] (STD_PRIM doi
   1.00000000000000     
     3.7851562934030869    0.0000000000000000    0.0000000000000000
     0.0000000000000000    6.4130969171584908    0.0000000000000000
     0.0000000000000000    0.0000000000000000    7.2043713955973159
   4   4   4
Direct
  0.2500000000000000  0.0160171995365952  0.3131801320632607
  0.7500000000000000  0.4839828004634047  0.8131801320632608
  0.7500000000000000  0.9839828004634048  0.6868198679367392
  0.2500000000000000  0.5160171995365952  0.1868198679367393
  0.2500000000000000  0.1412663711698389  0.9379350072344154
  0.7500000000000000  0.3587336288301611  0.4379350072344154
  0.7500000000000000  0.8587336288301611  0.0620649927655846
  0.2500000000000000  0.6412663711698389  0.5620649927655846
  0.2500000000000000  0.2727522217303591  0.6132908199396290
  0.7500000000000000  0.2272477782696410  0.1132908199396289
  0.7500000000000000  0.7272477782696409  0.3867091800603711
  0.2500000000000000  0.7727522217303591  0.8867091800603710
 
  0.00000000E+00  0.00000000E+00  0.00000000E+00
  0.00000000E+00  0.00000000E+00  0.00000000E+00
  0.00000000E+00  0.00000000E+00  0.00000000E+00
  0.00000000E+00  0.00000000E+00  0.00000000E+00
  0.00000000E+00  0.00000000E+00  0.00000000E+00
  0.00000000E+00  0.00000000E+00  0.00000000E+00
  0.00000000E+00  0.00000000E+00  0.00000000E+00
  0.00000000E+00  0.00000000E+00  0.00000000E+00
  0.00000000E+00  0.00000000E+00  0.00000000E+00
  0.00000000E+00  0.00000000E+00  0.00000000E+00
  0.00000000E+00  0.00000000E+00  0.00000000E+00
  0.00000000E+00  0.00000000E+00  0.00000000E+00
