B2Ir1Mo2   [ORC,ORC,oP20] (STD_PRIM doi:
   1.00000000000000     
     3.2583266263935049    0.0000000000000000    0.0000000000000000
     0.0000000000000000    7.4030342321398663   -0.0000000000000000
     0.0000000000000000    0.0000000000000000    9.4409908418985893
   8   4   8
Direct
  0.0000000000000000  0.3827682164534895  0.0404334879239841
  0.0000000000000000  0.6172317835465104  0.9595665120760158
  0.5000000000000000  0.8827682164534896  0.4595665120760160
  0.5000000000000000  0.1172317835465104  0.5404334879239842
  0.0000000000000000  0.3751208139886020  0.2384104096294287
  0.0000000000000000  0.6248791860113980  0.7615895903705713
  0.5000000000000000  0.8751208139886020  0.2615895903705713
  0.5000000000000000  0.1248791860113980  0.7384104096294287
  0.0000000000000000  0.8783993689471018  0.1115050262816100
  0.0000000000000000  0.1216006310528981  0.8884949737183900
  0.5000000000000000  0.3783993689471019  0.3884949737183900
  0.5000000000000000  0.6216006310528982  0.6115050262816100
  0.0000000000000000  0.6872292036029577  0.3691932000487813
  0.0000000000000000  0.3127707963970423  0.6308067999512187
  0.5000000000000000  0.1872292036029577  0.1308067999512187
  0.5000000000000000  0.8127707963970423  0.8691932000487813
  0.0000000000000000  0.9278871465064410  0.6384340977926799
  0.0000000000000000  0.0721128534935590  0.3615659022073201
  0.5000000000000000  0.4278871465064410  0.8615659022073201
  0.5000000000000000  0.5721128534935590  0.1384340977926799
 
  0.00000000E+00  0.00000000E+00  0.00000000E+00
  0.00000000E+00  0.00000000E+00  0.00000000E+00
  0.00000000E+00  0.00000000E+00  0.00000000E+00
  0.00000000E+00  0.00000000E+00  0.00000000E+00
  0.00000000E+00  0.00000000E+00  0.00000000E+00
  0.00000000E+00  0.00000000E+00  0.00000000E+00
  0.00000000E+00  0.00000000E+00  0.00000000E+00
  0.00000000E+00  0.00000000E+00  0.00000000E+00
  0.00000000E+00  0.00000000E+00  0.00000000E+00
  0.00000000E+00  0.00000000E+00  0.00000000E+00
  0.00000000E+00  0.00000000E+00  0.00000000E+00
  0.00000000E+00  0.00000000E+00  0.00000000E+00
  0.00000000E+00  0.00000000E+00  0.00000000E+00
  0.00000000E+00  0.00000000E+00  0.00000000E+00
  0.00000000E+00  0.00000000E+00  0.00000000E+00
  0.00000000E+00  0.00000000E+00  0.00000000E+00
  0.00000000E+00  0.00000000E+00  0.00000000E+00
  0.00000000E+00  0.00000000E+00  0.00000000E+00
  0.00000000E+00  0.00000000E+00  0.00000000E+00
  0.00000000E+00  0.00000000E+00  0.00000000E+00
