Ba1Pt1   [HEX,HEX,hP4] (STD_PRIM doi:10.
   1.00000000000000     
     2.5429511047059155   -4.4045205145140542   -0.0000000000000000
     2.5429718477508119    4.4045324905166083    0.0000000000000000
     0.0000000000000000    0.0000000000000000    5.5228767451197438
   2   2
Direct
  0.6666815780610837  0.3333631561221675  0.2500000000000000
  0.3333184219389163  0.6666368438778325  0.7500000000000000
 -0.0000000000000000 -0.0000000000000000  0.0000000000000000
  0.0000000000000000  0.0000000000000000  0.5000000000000000
 
  0.00000000E+00  0.00000000E+00  0.00000000E+00
  0.00000000E+00  0.00000000E+00  0.00000000E+00
  0.00000000E+00  0.00000000E+00  0.00000000E+00
  0.00000000E+00  0.00000000E+00  0.00000000E+00
