B1H4Na1   [FCC,FCC,cF24] (STD_PRIM doi:1
   1.22474500000000     
    -0.0000000000000000    2.4936941776828569    2.4936941776828569
     2.4936941776828569    0.0000000000000000    2.4936941776828569
     2.4936941776828569    2.4936941776828569   -0.0000000000000000
   1   4   1
Direct
  0.5000000000000000  0.5000000000000000  0.5000000000000000
  0.1531639191507875  0.6156120269497375  0.6156120269497375
  0.6156120269497375  0.1531639191507875  0.6156120269497375
  0.6156120269497375  0.6156120269497375  0.6156120269497375
  0.6156120269497375  0.6156120269497375  0.1531639191507875
 -0.0000000000000000 -0.0000000000000000 -0.0000000000000000
 
  0.00000000E+00  0.00000000E+00  0.00000000E+00
  0.00000000E+00  0.00000000E+00  0.00000000E+00
  0.00000000E+00  0.00000000E+00  0.00000000E+00
  0.00000000E+00  0.00000000E+00  0.00000000E+00
  0.00000000E+00  0.00000000E+00  0.00000000E+00
  0.00000000E+00  0.00000000E+00  0.00000000E+00
