Co1Ga1Hf1 #189 - (Co1Ga1Hf1_ICSD_623085)
   1.00000000000000     
     3.4310676950939829   -5.9428564937430561    0.0000000000000000
     3.4310676950939829    5.9428564937430561    0.0000000000000000
     0.0000000000000000    0.0000000000000000    3.3009179053784892
   3   3   3
Direct
  0.3333333592004895  0.6666629441775523  0.0000000000000000
  0.6666629441775523  0.3333333592004895  0.0000000000000000
  0.0000006950644239  0.0000006950644239  0.5000000000000000
  0.2582854054644257 -0.0000001878895920  0.0000000000000000
 -0.0000001878895920  0.2582854054644257  0.0000000000000000
  0.7417214244050908  0.7417214244050908  0.0000000000000000
  0.5964405776018741  0.9999979542859576  0.5000000000000000
  0.9999979542859576  0.5964405776018741  0.5000000000000000
  0.4035578276897711  0.4035578276897711  0.5000000000000000
 
  0.00000000E+00  0.00000000E+00  0.00000000E+00
  0.00000000E+00  0.00000000E+00  0.00000000E+00
  0.00000000E+00  0.00000000E+00  0.00000000E+00
  0.00000000E+00  0.00000000E+00  0.00000000E+00
  0.00000000E+00  0.00000000E+00  0.00000000E+00
  0.00000000E+00  0.00000000E+00  0.00000000E+00
  0.00000000E+00  0.00000000E+00  0.00000000E+00
  0.00000000E+00  0.00000000E+00  0.00000000E+00
  0.00000000E+00  0.00000000E+00  0.00000000E+00
