Ho1Rh3Si2   [HEX,HEX,hP6] (STD_PRIM doi:
   1.00000000000000     
     2.7531538887928306   -4.7687572513585819    0.0000000000000000
     2.7531538887928306    4.7687572513585819    0.0000000000000000
     0.0000000000000000    0.0000000000000000    3.6329409983497345
   1   3   2
Direct
  0.0000000000000000  0.0000000000000000  0.0000000000000000
  0.5000000000000000  0.0000000000000000  0.5000000000000000
 -0.0000000000000000  0.5000000000000000  0.5000000000000000
  0.5000000000000000  0.5000000000000000  0.5000000000000000
  0.3333269759008570  0.6666730240991431  0.0000000000000000
  0.6666730240991431  0.3333269759008570 -0.0000000000000000
 
  0.00000000E+00  0.00000000E+00  0.00000000E+00
  0.00000000E+00  0.00000000E+00  0.00000000E+00
  0.00000000E+00  0.00000000E+00  0.00000000E+00
  0.00000000E+00  0.00000000E+00  0.00000000E+00
  0.00000000E+00  0.00000000E+00  0.00000000E+00
  0.00000000E+00  0.00000000E+00  0.00000000E+00
