Cr1Ho1O4   [BCT,BCT1,tI24] (STD_PRIM doi
   1.00000000000000     
    -3.5918770135782134    3.5918770135782134    3.1332355017078908
     3.5918770135782134   -3.5918770135782134    3.1332355017078908
     3.5918770135782134    3.5918770135782134   -3.1332355017078908
   2   2   8
Direct
  0.6250000000000000  0.3750000000000000  0.7500000000000000
  0.3750000000000000  0.6250000000000000  0.2500000000000000
  0.8750000000000000  0.1250000000000000  0.2500000000000000
  0.1250000000000000  0.8750000000000000  0.7500000000000000
  0.8006546426374784  0.3660289509894818  0.5653743083520103
  0.8006546426374784  0.7352803342854681  0.9346256916479897
  0.7352803342854681  0.8006546426374784  0.4346256916479896
  0.3660289509894818  0.8006546426374784  0.0653743083520104
  0.1993453573625215  0.2647196657145318  0.0653743083520104
  0.1993453573625215  0.6339710490105182  0.4346256916479896
  0.2647196657145318  0.1993453573625215  0.5653743083520103
  0.6339710490105182  0.1993453573625215  0.9346256916479897
 
  0.00000000E+00  0.00000000E+00  0.00000000E+00
  0.00000000E+00  0.00000000E+00  0.00000000E+00
  0.00000000E+00  0.00000000E+00  0.00000000E+00
  0.00000000E+00  0.00000000E+00  0.00000000E+00
  0.00000000E+00  0.00000000E+00  0.00000000E+00
  0.00000000E+00  0.00000000E+00  0.00000000E+00
  0.00000000E+00  0.00000000E+00  0.00000000E+00
  0.00000000E+00  0.00000000E+00  0.00000000E+00
  0.00000000E+00  0.00000000E+00  0.00000000E+00
  0.00000000E+00  0.00000000E+00  0.00000000E+00
  0.00000000E+00  0.00000000E+00  0.00000000E+00
  0.00000000E+00  0.00000000E+00  0.00000000E+00
