Cl4Th1   [BCT,BCT1,tI20] (STD_PRIM doi:1
   1.00000000000000     
    -4.3851746363292197    4.3851746363292197    3.8857556261009876
     4.3851746363292197   -4.3851746363292197    3.8857556261009876
     4.3851746363292197    4.3851746363292197   -3.8857556261009876
   8   2
Direct
  0.2382012741489164  0.8035489936948156  0.4346522804541008
  0.8688967132407077  0.8035489936948156  0.0653477195458993
  0.3035489936948156  0.3688967132407078  0.5653477195458992
  0.3035489936948156  0.7382012741489165  0.9346522804541008
  0.1311032867592922  0.1964510063051843  0.9346522804541008
  0.7617987258510835  0.1964510063051843  0.5653477195458992
  0.6964510063051844  0.6311032867592923  0.4346522804541008
  0.6964510063051844  0.2617987258510836  0.0653477195458993
  0.3750000000000000  0.1250000000000000  0.2500000000000000
  0.6250000000000000  0.8750000000000000  0.7500000000000000
 
  0.00000000E+00  0.00000000E+00  0.00000000E+00
  0.00000000E+00  0.00000000E+00  0.00000000E+00
  0.00000000E+00  0.00000000E+00  0.00000000E+00
  0.00000000E+00  0.00000000E+00  0.00000000E+00
  0.00000000E+00  0.00000000E+00  0.00000000E+00
  0.00000000E+00  0.00000000E+00  0.00000000E+00
  0.00000000E+00  0.00000000E+00  0.00000000E+00
  0.00000000E+00  0.00000000E+00  0.00000000E+00
  0.00000000E+00  0.00000000E+00  0.00000000E+00
  0.00000000E+00  0.00000000E+00  0.00000000E+00
