Ge2Pt2Th1   [BCT,BCT2,tI10] (STD_PRIM do
   1.00000000000000     
    -2.2178531427979542    2.2178531427979542    5.0237398494752901
     2.2178531427979542   -2.2178531427979542    5.0237398494752901
     2.2178531427979542    2.2178531427979542   -5.0237398494752901
   2   2   1
Direct
  0.3735122115396542  0.3735122115396542 -0.0000000000000000
  0.6264877884603458  0.6264877884603458  0.0000000000000000
  0.7500000000000000  0.2500000000000000  0.5000000000000000
  0.2500000000000000  0.7500000000000000  0.5000000000000000
  0.0000000000000000 -0.0000000000000000  0.0000000000000000
 
  0.00000000E+00  0.00000000E+00  0.00000000E+00
  0.00000000E+00  0.00000000E+00  0.00000000E+00
  0.00000000E+00  0.00000000E+00  0.00000000E+00
  0.00000000E+00  0.00000000E+00  0.00000000E+00
  0.00000000E+00  0.00000000E+00  0.00000000E+00
