Sr1Zn13   [FCC,FCC,cF112] (STD_PRIM doi:
   1.22474500000000     
     0.0000000000000000    4.9588567512103428    4.9588567512103428
     4.9588567512103428    0.0000000000000000    4.9588567512103428
     4.9588567512103428    4.9588567512103428    0.0000000000000000
   2  26
Direct
  0.2500000000000000  0.2500000000000000  0.2500000000000000
  0.7500000000000000  0.7500000000000000  0.7500000000000000
  0.0000000000000000  0.0000000000000000  0.0000000000000000
  0.5000000000000000  0.5000000000000000  0.5000000000000000
  0.0593833270623508  0.2986985382704193  0.9406166729376492
  0.7013014617295807  0.9406166729376492  0.2986985382704193
  0.2986985382704193  0.0593833270623508  0.7013014617295807
  0.9406166729376492  0.7013014617295807  0.0593833270623508
  0.9406166729376492  0.0593833270623508  0.2986985382704193
  0.2986985382704193  0.7013014617295807  0.9406166729376492
  0.7013014617295807  0.2986985382704193  0.0593833270623508
  0.0593833270623508  0.9406166729376492  0.7013014617295807
  0.2986985382704193  0.9406166729376492  0.0593833270623508
  0.9406166729376492  0.2986985382704193  0.7013014617295807
  0.0593833270623508  0.7013014617295807  0.2986985382704193
  0.7013014617295807  0.0593833270623508  0.9406166729376492
  0.7986985382704193  0.2013014617295807  0.5593833270623508
  0.4406166729376492  0.5593833270623508  0.2013014617295807
  0.5593833270623508  0.4406166729376492  0.7986985382704193
  0.2013014617295807  0.7986985382704193  0.4406166729376492
  0.7986985382704193  0.4406166729376492  0.2013014617295807
  0.4406166729376492  0.7986985382704193  0.5593833270623508
  0.5593833270623508  0.2013014617295807  0.4406166729376492
  0.2013014617295807  0.5593833270623508  0.7986985382704193
  0.7986985382704193  0.5593833270623508  0.4406166729376492
  0.4406166729376492  0.2013014617295807  0.7986985382704193
  0.5593833270623508  0.7986985382704193  0.2013014617295807
  0.2013014617295807  0.4406166729376492  0.5593833270623508
 
  0.00000000E+00  0.00000000E+00  0.00000000E+00
  0.00000000E+00  0.00000000E+00  0.00000000E+00
  0.00000000E+00  0.00000000E+00  0.00000000E+00
  0.00000000E+00  0.00000000E+00  0.00000000E+00
  0.00000000E+00  0.00000000E+00  0.00000000E+00
  0.00000000E+00  0.00000000E+00  0.00000000E+00
  0.00000000E+00  0.00000000E+00  0.00000000E+00
  0.00000000E+00  0.00000000E+00  0.00000000E+00
  0.00000000E+00  0.00000000E+00  0.00000000E+00
  0.00000000E+00  0.00000000E+00  0.00000000E+00
  0.00000000E+00  0.00000000E+00  0.00000000E+00
  0.00000000E+00  0.00000000E+00  0.00000000E+00
  0.00000000E+00  0.00000000E+00  0.00000000E+00
  0.00000000E+00  0.00000000E+00  0.00000000E+00
  0.00000000E+00  0.00000000E+00  0.00000000E+00
  0.00000000E+00  0.00000000E+00  0.00000000E+00
  0.00000000E+00  0.00000000E+00  0.00000000E+00
  0.00000000E+00  0.00000000E+00  0.00000000E+00
  0.00000000E+00  0.00000000E+00  0.00000000E+00
  0.00000000E+00  0.00000000E+00  0.00000000E+00
  0.00000000E+00  0.00000000E+00  0.00000000E+00
  0.00000000E+00  0.00000000E+00  0.00000000E+00
  0.00000000E+00  0.00000000E+00  0.00000000E+00
  0.00000000E+00  0.00000000E+00  0.00000000E+00
  0.00000000E+00  0.00000000E+00  0.00000000E+00
  0.00000000E+00  0.00000000E+00  0.00000000E+00
  0.00000000E+00  0.00000000E+00  0.00000000E+00
  0.00000000E+00  0.00000000E+00  0.00000000E+00
