Pd1Sb1Se1   [CUB,CUB,cP12] (STD_PRIM doi
   1.00000000000000     
     6.4135551426053583    0.0000000000000000    0.0000000000000000
     0.0000000000000000    6.4135551426053583    0.0000000000000000
     0.0000000000000000    0.0000000000000000    6.4135551426053583
   4   4   4
Direct
  0.9967470790103710  0.9967470790103710  0.9967470790103710
  0.5032529209896290  0.0032529209896291  0.4967470790103710
  0.0032529209896291  0.4967470790103710  0.5032529209896290
  0.4967470790103710  0.5032529209896290  0.0032529209896291
  0.6233839593562007  0.6233839593562007  0.6233839593562007
  0.8766160406437993  0.3766160406437993  0.1233839593562007
  0.3766160406437993  0.1233839593562007  0.8766160406437993
  0.1233839593562007  0.8766160406437993  0.3766160406437993
  0.3823447733454489  0.3823447733454489  0.3823447733454489
  0.1176552266545511  0.6176552266545511  0.8823447733454489
  0.6176552266545511  0.8823447733454489  0.1176552266545511
  0.8823447733454489  0.1176552266545511  0.6176552266545511
 
  0.00000000E+00  0.00000000E+00  0.00000000E+00
  0.00000000E+00  0.00000000E+00  0.00000000E+00
  0.00000000E+00  0.00000000E+00  0.00000000E+00
  0.00000000E+00  0.00000000E+00  0.00000000E+00
  0.00000000E+00  0.00000000E+00  0.00000000E+00
  0.00000000E+00  0.00000000E+00  0.00000000E+00
  0.00000000E+00  0.00000000E+00  0.00000000E+00
  0.00000000E+00  0.00000000E+00  0.00000000E+00
  0.00000000E+00  0.00000000E+00  0.00000000E+00
  0.00000000E+00  0.00000000E+00  0.00000000E+00
  0.00000000E+00  0.00000000E+00  0.00000000E+00
  0.00000000E+00  0.00000000E+00  0.00000000E+00
