As3Ir1   [BCC,BCC,cI32] (STD_PRIM doi:10
   1.00000000000000     
    -4.2830821168316868    4.2830821168316868    4.2830821168316868
     4.2830821168316868   -4.2830821168316868    4.2830821168316868
     4.2830821168316868    4.2830821168316868   -4.2830821168316868
  12   4
Direct
  0.6520053119378936  0.1460018074368314  0.7980071193747179
  0.3479946880621065  0.1460018074368314  0.4939964954989379
  0.6520053119378936  0.8539981925631686  0.5060035045010622
  0.3479946880621065  0.8539981925631686  0.2019928806252822
  0.1460018074368314  0.4939964954989379  0.3479946880621065
  0.1460018074368314  0.7980071193747179  0.6520053119378936
  0.8539981925631686  0.2019928806252822  0.3479946880621065
  0.8539981925631686  0.5060035045010622  0.6520053119378936
  0.2019928806252822  0.3479946880621065  0.8539981925631686
  0.5060035045010622  0.6520053119378936  0.8539981925631686
  0.4939964954989379  0.3479946880621065  0.1460018074368314
  0.7980071193747179  0.6520053119378936  0.1460018074368314
  0.0000000000000000  0.5000000000000000 -0.0000000000000000
  0.0000000000000000 -0.0000000000000000  0.5000000000000000
  0.5000000000000000  0.5000000000000000  0.5000000000000000
  0.5000000000000000  0.0000000000000000 -0.0000000000000000
 
  0.00000000E+00  0.00000000E+00  0.00000000E+00
  0.00000000E+00  0.00000000E+00  0.00000000E+00
  0.00000000E+00  0.00000000E+00  0.00000000E+00
  0.00000000E+00  0.00000000E+00  0.00000000E+00
  0.00000000E+00  0.00000000E+00  0.00000000E+00
  0.00000000E+00  0.00000000E+00  0.00000000E+00
  0.00000000E+00  0.00000000E+00  0.00000000E+00
  0.00000000E+00  0.00000000E+00  0.00000000E+00
  0.00000000E+00  0.00000000E+00  0.00000000E+00
  0.00000000E+00  0.00000000E+00  0.00000000E+00
  0.00000000E+00  0.00000000E+00  0.00000000E+00
  0.00000000E+00  0.00000000E+00  0.00000000E+00
  0.00000000E+00  0.00000000E+00  0.00000000E+00
  0.00000000E+00  0.00000000E+00  0.00000000E+00
  0.00000000E+00  0.00000000E+00  0.00000000E+00
  0.00000000E+00  0.00000000E+00  0.00000000E+00
