Bi2Ir2O7   [FCC,FCC,cF88] (STD_PRIM doi:
   1.22474500000000     
    -0.0000000000000000    4.2573167074259883    4.2573167074259883
     4.2573167074259883    0.0000000000000000    4.2573167074259883
     4.2573167074259883    4.2573167074259883   -0.0000000000000000
   4   4  14
Direct
  0.5000000000000000  0.5000000000000000  0.5000000000000000
  0.0000000000000000  0.0000000000000000  0.5000000000000000
  0.0000000000000000  0.5000000000000000 -0.0000000000000000
  0.0000000000000000  0.5000000000000000  0.5000000000000000
 -0.0000000000000000  0.0000000000000000  0.0000000000000000
  0.5000000000000000  0.5000000000000000  0.0000000000000000
  0.5000000000000000  0.0000000000000000  0.5000000000000000
  0.5000000000000000 -0.0000000000000000 -0.0000000000000000
  0.4184318685906673  0.3315681314093327  0.3315681314093327
  0.8315681314093326  0.9184318685906674  0.9184318685906674
  0.4184318685906673  0.3315681314093327  0.9184318685906674
  0.8315681314093326  0.9184318685906674  0.3315681314093327
  0.4184318685906673  0.9184318685906674  0.3315681314093327
  0.8315681314093326  0.3315681314093327  0.9184318685906674
  0.1684318685906674  0.0815681314093327  0.6684318685906674
  0.5815681314093326  0.6684318685906674  0.0815681314093327
  0.1684318685906674  0.0815681314093327  0.0815681314093327
  0.5815681314093326  0.6684318685906674  0.6684318685906674
  0.5815681314093326  0.0815681314093327  0.6684318685906674
  0.1684318685906674  0.6684318685906674  0.0815681314093327
  0.8750000000000000  0.3750000000000000  0.3750000000000000
  0.1250000000000000  0.6250000000000000  0.6250000000000000
 
  0.00000000E+00  0.00000000E+00  0.00000000E+00
  0.00000000E+00  0.00000000E+00  0.00000000E+00
  0.00000000E+00  0.00000000E+00  0.00000000E+00
  0.00000000E+00  0.00000000E+00  0.00000000E+00
  0.00000000E+00  0.00000000E+00  0.00000000E+00
  0.00000000E+00  0.00000000E+00  0.00000000E+00
  0.00000000E+00  0.00000000E+00  0.00000000E+00
  0.00000000E+00  0.00000000E+00  0.00000000E+00
  0.00000000E+00  0.00000000E+00  0.00000000E+00
  0.00000000E+00  0.00000000E+00  0.00000000E+00
  0.00000000E+00  0.00000000E+00  0.00000000E+00
  0.00000000E+00  0.00000000E+00  0.00000000E+00
  0.00000000E+00  0.00000000E+00  0.00000000E+00
  0.00000000E+00  0.00000000E+00  0.00000000E+00
  0.00000000E+00  0.00000000E+00  0.00000000E+00
  0.00000000E+00  0.00000000E+00  0.00000000E+00
  0.00000000E+00  0.00000000E+00  0.00000000E+00
  0.00000000E+00  0.00000000E+00  0.00000000E+00
  0.00000000E+00  0.00000000E+00  0.00000000E+00
  0.00000000E+00  0.00000000E+00  0.00000000E+00
  0.00000000E+00  0.00000000E+00  0.00000000E+00
  0.00000000E+00  0.00000000E+00  0.00000000E+00
