Cl4U1   [BCT,BCT1,tI20] (STD_PRIM doi:10
   1.00000000000000     
    -4.2171220373014453    4.2171220373014453    3.8743265136206495
     4.2171220373014453   -4.2171220373014453    3.8743265136206495
     4.2171220373014453    4.2171220373014453   -3.8743265136206495
   8   2
Direct
  0.9309521134838363  0.6201660469676588  0.6892139334838224
  0.9309521134838363  0.2417381800000210  0.3107860665161776
  0.8701660469676588  0.6809521134838363  0.1892139334838224
  0.4917381800000211  0.6809521134838363  0.8107860665161776
  0.3190478865161636  0.5082618199999790  0.1892139334838224
  0.3190478865161636  0.1298339530323412  0.8107860665161776
  0.3798339530323412  0.0690478865161636  0.3107860665161776
  0.7582618199999790  0.0690478865161636  0.6892139334838224
 -0.0000000000000000 -0.0000000000000000  0.0000000000000000
  0.2500000000000000  0.7500000000000000  0.5000000000000000
 
  0.00000000E+00  0.00000000E+00  0.00000000E+00
  0.00000000E+00  0.00000000E+00  0.00000000E+00
  0.00000000E+00  0.00000000E+00  0.00000000E+00
  0.00000000E+00  0.00000000E+00  0.00000000E+00
  0.00000000E+00  0.00000000E+00  0.00000000E+00
  0.00000000E+00  0.00000000E+00  0.00000000E+00
  0.00000000E+00  0.00000000E+00  0.00000000E+00
  0.00000000E+00  0.00000000E+00  0.00000000E+00
  0.00000000E+00  0.00000000E+00  0.00000000E+00
  0.00000000E+00  0.00000000E+00  0.00000000E+00
