Ga12Pd1Tb4   [BCC,BCC,cI34] (STD_PRIM do
   1.00000000000000     
    -4.3207787668304958    4.3207787668304958    4.3207787668304958
     4.3207787668304958   -4.3207787668304958    4.3207787668304958
     4.3207787668304958    4.3207787668304958   -4.3207787668304958
  12   1   4
Direct
  0.2958943101694930  0.0000000000000000  0.2958943101694930
  0.7041056898305069  0.0000000000000000  0.7041056898305069
  0.7041056898305069  0.7041056898305069 -0.0000000000000000
  0.2958943101694930  0.2958943101694930 -0.0000000000000000
  0.0000000000000000  0.2958943101694930  0.2958943101694930
  0.0000000000000000  0.7041056898305069  0.7041056898305069
  0.2500000000000000  0.7500000000000000  0.5000000000000000
  0.7500000000000000  0.2500000000000000  0.5000000000000000
  0.5000000000000000  0.7500000000000000  0.2500000000000000
  0.5000000000000000  0.2500000000000000  0.7500000000000000
  0.2500000000000000  0.5000000000000000  0.7500000000000000
  0.7500000000000000  0.5000000000000000  0.2500000000000000
 -0.0000000000000000 -0.0000000000000000 -0.0000000000000000
 -0.0000000000000000 -0.0000000000000000  0.5000000000000000
  0.5000000000000000  0.5000000000000000  0.5000000000000000
  0.5000000000000000 -0.0000000000000000 -0.0000000000000000
  0.0000000000000000  0.5000000000000000 -0.0000000000000000
 
  0.00000000E+00  0.00000000E+00  0.00000000E+00
  0.00000000E+00  0.00000000E+00  0.00000000E+00
  0.00000000E+00  0.00000000E+00  0.00000000E+00
  0.00000000E+00  0.00000000E+00  0.00000000E+00
  0.00000000E+00  0.00000000E+00  0.00000000E+00
  0.00000000E+00  0.00000000E+00  0.00000000E+00
  0.00000000E+00  0.00000000E+00  0.00000000E+00
  0.00000000E+00  0.00000000E+00  0.00000000E+00
  0.00000000E+00  0.00000000E+00  0.00000000E+00
  0.00000000E+00  0.00000000E+00  0.00000000E+00
  0.00000000E+00  0.00000000E+00  0.00000000E+00
  0.00000000E+00  0.00000000E+00  0.00000000E+00
  0.00000000E+00  0.00000000E+00  0.00000000E+00
  0.00000000E+00  0.00000000E+00  0.00000000E+00
  0.00000000E+00  0.00000000E+00  0.00000000E+00
  0.00000000E+00  0.00000000E+00  0.00000000E+00
  0.00000000E+00  0.00000000E+00  0.00000000E+00
