Li3N1   [HEX,HEX,hP4] (STD_PRIM doi:10.1
   1.00000000000000     
     1.8254561603283355   -3.1617828166782767    0.0000000000000000
     1.8252736273152217    3.1616774311940192    0.0000000000000000
     0.0000000000000000    0.0000000000000000    3.8888288527335750
   3   1
Direct
  0.0000000000000000  0.0000000000000000  0.5000000000000000
  0.6666748975319692  0.3333497950639384  0.0000000000000000
  0.3333251024680308  0.6666502049360616  0.0000000000000000
  0.0000000000000000  0.0000000000000000  0.0000000000000000
 
  0.00000000E+00  0.00000000E+00  0.00000000E+00
  0.00000000E+00  0.00000000E+00  0.00000000E+00
  0.00000000E+00  0.00000000E+00  0.00000000E+00
  0.00000000E+00  0.00000000E+00  0.00000000E+00
