C1W2   [ORC,ORC,oP12] (STD_PRIM doi:10.1
   1.00000000000000     
     4.7648961982582323    0.0000000000000000    0.0000000000000000
     0.0000000000000000    5.2646934570159063    0.0000000000000000
     0.0000000000000000    0.0000000000000000    6.1413403573796526
   4   8
Direct
  0.0000000000000000  0.2500000000000000  0.3788471309483988
  0.5000000000000000  0.7500000000000000  0.1211528690516012
 -0.0000000000000000  0.7500000000000000  0.6211528690516012
  0.5000000000000000  0.2500000000000000  0.8788471309483988
  0.7558377130933754  0.0807795227248213  0.1232371793583065
  0.7441622869066246  0.5807795227248213  0.3767628206416935
  0.2441622869066245  0.4192204772751787  0.1232371793583065
  0.2558377130933754  0.9192204772751787  0.3767628206416935
  0.2441622869066245  0.9192204772751787  0.8767628206416935
  0.2558377130933754  0.4192204772751787  0.6232371793583065
  0.7558377130933754  0.5807795227248213  0.8767628206416935
  0.7441622869066246  0.0807795227248213  0.6232371793583065
 
  0.00000000E+00  0.00000000E+00  0.00000000E+00
  0.00000000E+00  0.00000000E+00  0.00000000E+00
  0.00000000E+00  0.00000000E+00  0.00000000E+00
  0.00000000E+00  0.00000000E+00  0.00000000E+00
  0.00000000E+00  0.00000000E+00  0.00000000E+00
  0.00000000E+00  0.00000000E+00  0.00000000E+00
  0.00000000E+00  0.00000000E+00  0.00000000E+00
  0.00000000E+00  0.00000000E+00  0.00000000E+00
  0.00000000E+00  0.00000000E+00  0.00000000E+00
  0.00000000E+00  0.00000000E+00  0.00000000E+00
  0.00000000E+00  0.00000000E+00  0.00000000E+00
  0.00000000E+00  0.00000000E+00  0.00000000E+00
