Al1Si1Y1   [ORCC,ORCC,oS12] (STD_PRIM do
   1.00000000000000     
     2.0007646690083236   -5.1621657826128544    0.0000000000000000
     2.0007646690083236    5.1621657826128544    0.0000000000000000
     0.0000000000000000   -0.0000000000000000    5.7220612914884565
   2   2   2
Direct
  0.0000000000000000  0.0000000000000000  0.0000000000000000
  0.0000000000000000  0.0000000000000000  0.5000000000000000
  0.5991581531855680  0.4008418468144320  0.7500000000000000
  0.4008418468144320  0.5991581531855680  0.2500000000000000
  0.3055300399699022  0.6944699600300978  0.7500000000000000
  0.6944699600300978  0.3055300399699022  0.2500000000000000
 
  0.00000000E+00  0.00000000E+00  0.00000000E+00
  0.00000000E+00  0.00000000E+00  0.00000000E+00
  0.00000000E+00  0.00000000E+00  0.00000000E+00
  0.00000000E+00  0.00000000E+00  0.00000000E+00
  0.00000000E+00  0.00000000E+00  0.00000000E+00
  0.00000000E+00  0.00000000E+00  0.00000000E+00
