Ti1   [HEX,HEX,hP3] (STD_PRIM doi:10.101
   1.00000000000000     
     2.3589922028256876   -4.0858943499529188    0.0000000000000000
     2.3589049680680025    4.0858439849420867    0.0000000000000000
     0.0000000000000000    0.0000000000000000    2.8751785364921680
   3
Direct
  0.0000000000000000  0.0000000000000000  0.0000000000000000
  0.6666749870134626  0.3333499740269253  0.5000000000000000
  0.3333250129865373  0.6666500259730676  0.5000000000000000
 
  0.00000000E+00  0.00000000E+00  0.00000000E+00
  0.00000000E+00  0.00000000E+00  0.00000000E+00
  0.00000000E+00  0.00000000E+00  0.00000000E+00
