Al16Pd7Ti6   [FCC,FCC,cF116] (STD_PRIM d
   1.22474500000000     
    -0.0000000000000000    4.9981907580854452    4.9981907580854452
     4.9981907580854452    0.0000000000000000    4.9981907580854452
     4.9981907580854452    4.9981907580854452    0.0000000000000000
  16   7   6
Direct
  0.1201143331882313  0.6396570004353063  0.1201143331882313
  0.1201143331882313  0.1201143331882313  0.1201143331882313
  0.1201143331882313  0.1201143331882313  0.6396570004353063
  0.6396570004353063  0.1201143331882313  0.1201143331882313
  0.8798856668117687  0.8798856668117687  0.8798856668117687
  0.8798856668117687  0.3603429995646938  0.8798856668117687
  0.8798856668117687  0.8798856668117687  0.3603429995646938
  0.3603429995646938  0.8798856668117687  0.8798856668117687
  0.3369142760971056  0.9892571717086830  0.3369142760971056
  0.3369142760971056  0.3369142760971056  0.3369142760971056
  0.3369142760971056  0.3369142760971056  0.9892571717086830
  0.9892571717086830  0.3369142760971056  0.3369142760971056
  0.6630857239028943  0.6630857239028943  0.6630857239028943
  0.6630857239028943  0.0107428282913169  0.6630857239028943
  0.6630857239028943  0.6630857239028943  0.0107428282913169
  0.0107428282913169  0.6630857239028943  0.6630857239028943
 -0.0000000000000000  0.0000000000000000 -0.0000000000000000
  0.5000000000000000  0.5000000000000000  0.0000000000000000
  0.0000000000000000  0.0000000000000000  0.5000000000000000
  0.0000000000000000  0.5000000000000000  0.5000000000000000
  0.5000000000000000  0.0000000000000000  0.0000000000000000
 -0.0000000000000000  0.5000000000000000 -0.0000000000000000
  0.5000000000000000 -0.0000000000000000  0.5000000000000000
  0.6753493083439857  0.6753493083439857  0.3246506916560144
  0.3246506916560144  0.3246506916560144  0.6753493083439857
  0.3246506916560144  0.6753493083439857  0.6753493083439857
  0.6753493083439857  0.3246506916560144  0.3246506916560144
  0.3246506916560144  0.6753493083439857  0.3246506916560144
  0.6753493083439857  0.3246506916560144  0.6753493083439857
 
  0.00000000E+00  0.00000000E+00  0.00000000E+00
  0.00000000E+00  0.00000000E+00  0.00000000E+00
  0.00000000E+00  0.00000000E+00  0.00000000E+00
  0.00000000E+00  0.00000000E+00  0.00000000E+00
  0.00000000E+00  0.00000000E+00  0.00000000E+00
  0.00000000E+00  0.00000000E+00  0.00000000E+00
  0.00000000E+00  0.00000000E+00  0.00000000E+00
  0.00000000E+00  0.00000000E+00  0.00000000E+00
  0.00000000E+00  0.00000000E+00  0.00000000E+00
  0.00000000E+00  0.00000000E+00  0.00000000E+00
  0.00000000E+00  0.00000000E+00  0.00000000E+00
  0.00000000E+00  0.00000000E+00  0.00000000E+00
  0.00000000E+00  0.00000000E+00  0.00000000E+00
  0.00000000E+00  0.00000000E+00  0.00000000E+00
  0.00000000E+00  0.00000000E+00  0.00000000E+00
  0.00000000E+00  0.00000000E+00  0.00000000E+00
  0.00000000E+00  0.00000000E+00  0.00000000E+00
  0.00000000E+00  0.00000000E+00  0.00000000E+00
  0.00000000E+00  0.00000000E+00  0.00000000E+00
  0.00000000E+00  0.00000000E+00  0.00000000E+00
  0.00000000E+00  0.00000000E+00  0.00000000E+00
  0.00000000E+00  0.00000000E+00  0.00000000E+00
  0.00000000E+00  0.00000000E+00  0.00000000E+00
  0.00000000E+00  0.00000000E+00  0.00000000E+00
  0.00000000E+00  0.00000000E+00  0.00000000E+00
  0.00000000E+00  0.00000000E+00  0.00000000E+00
  0.00000000E+00  0.00000000E+00  0.00000000E+00
  0.00000000E+00  0.00000000E+00  0.00000000E+00
  0.00000000E+00  0.00000000E+00  0.00000000E+00
