H2Hf2Pd1 #139 - (H2Hf2Pd1_ICSD_638175) -
    1.000000000000000     
    -1.5866739457114880    1.5866739457114880    6.2128161100083048
     1.5866739457114880   -1.5866739457114880    6.2128161100083048
     1.5866739457114880    1.5866739457114880   -6.2128161100083048
   2   2   1
Direct
  0.2500000000000000  0.7500000000000000  0.5000000000000000
  0.7500000000000000  0.2500000000000000  0.5000000000000000
  0.3568886448359421  0.3568886448359421  0.0000000000000000
  0.6431113551640579  0.6431113551640579  0.0000000000000000
  0.0000000000000000  0.0000000000000000  0.0000000000000000
 
  0.00000000E+00  0.00000000E+00  0.00000000E+00
  0.00000000E+00  0.00000000E+00  0.00000000E+00
  0.00000000E+00  0.00000000E+00  0.00000000E+00
  0.00000000E+00  0.00000000E+00  0.00000000E+00
  0.00000000E+00  0.00000000E+00  0.00000000E+00
