Co1N3   [BCC,BCC,cI32] (STD_PRIM doi:10.
   1.00000000000000     
    -3.1360498448843446    3.1360498448843446    3.1360498448843446
     3.1360498448843446   -3.1360498448843446    3.1360498448843446
     3.1360498448843446    3.1360498448843446   -3.1360498448843446
   4  12
Direct
  0.0000000000000000 -0.0000000000000000  0.5000000000000000
  0.5000000000000000  0.5000000000000000  0.5000000000000000
  0.5000000000000000 -0.0000000000000000 -0.0000000000000000
 -0.0000000000000000  0.5000000000000000  0.0000000000000000
  0.7360980749480054  0.1150521310127476  0.6210459439352577
  0.4940061870774899  0.1150521310127476  0.3789540560647423
  0.5059938129225100  0.8849478689872523  0.6210459439352577
  0.2639019250519946  0.8849478689872523  0.3789540560647423
  0.3789540560647423  0.2639019250519946  0.8849478689872523
  0.6210459439352577  0.5059938129225100  0.8849478689872523
  0.3789540560647423  0.4940061870774899  0.1150521310127476
  0.6210459439352577  0.7360980749480054  0.1150521310127476
  0.8849478689872523  0.6210459439352577  0.5059938129225100
  0.8849478689872523  0.3789540560647423  0.2639019250519946
  0.1150521310127476  0.6210459439352577  0.7360980749480054
  0.1150521310127476  0.3789540560647423  0.4940061870774899
 
  0.00000000E+00  0.00000000E+00  0.00000000E+00
  0.00000000E+00  0.00000000E+00  0.00000000E+00
  0.00000000E+00  0.00000000E+00  0.00000000E+00
  0.00000000E+00  0.00000000E+00  0.00000000E+00
  0.00000000E+00  0.00000000E+00  0.00000000E+00
  0.00000000E+00  0.00000000E+00  0.00000000E+00
  0.00000000E+00  0.00000000E+00  0.00000000E+00
  0.00000000E+00  0.00000000E+00  0.00000000E+00
  0.00000000E+00  0.00000000E+00  0.00000000E+00
  0.00000000E+00  0.00000000E+00  0.00000000E+00
  0.00000000E+00  0.00000000E+00  0.00000000E+00
  0.00000000E+00  0.00000000E+00  0.00000000E+00
  0.00000000E+00  0.00000000E+00  0.00000000E+00
  0.00000000E+00  0.00000000E+00  0.00000000E+00
  0.00000000E+00  0.00000000E+00  0.00000000E+00
  0.00000000E+00  0.00000000E+00  0.00000000E+00
