Dy4Mg1Rh1   [FCC,FCC,cF96] (STD_PRIM doi
   1.22474500000000     
     0.0000000000000000    5.5815095318521966    5.5815095318521966
     5.5815095318521966   -0.0000000000000000    5.5815095318521966
     5.5815095318521966    5.5815095318521966    0.0000000000000000
  16   4   4
Direct
  0.4346901651984789  0.4346901784652355  0.0653098295457217
  0.0653098251015327  0.0653098235867053  0.4346901754985846
  0.0653098251015327  0.4346901758842956  0.0653098232009943
  0.4346901651984789  0.0653098261676452  0.4346901818433191
  0.4346901651984860  0.0653098261676452  0.0653098295457146
  0.0653098057015631  0.4346901799881986  0.4346901855871830
  0.8124405795302115  0.8124405839421135  0.1875594187219528
  0.1875594010698259  0.1875594201617752  0.8124405913666456
  0.1875594204697955  0.8124405824014437  0.1875594149344829
  0.8124405989301741  0.1875594134946746  0.8124405749769116
  0.8124405795302115  0.1875594175985634  0.1875594187219528
  0.1875594010698259  0.8124405865053254  0.8124405913666456
  0.6533806031638346  0.6533806113102781  0.0398581738331169
  0.6533806031638346  0.0398581717588153  0.6533806133845798
  0.0398581517085570  0.6533806138284274  0.6533806195749347
  0.6533806031638346  0.6533806113102781  0.6533806133845798
  0.4202708535593730  0.4202708671845629  0.7391874114317499
  0.4202708535593730  0.7391874079624255  0.4202708706538943
  0.7391874005219418  0.4202708658762405  0.4202708674376440
  0.4202708535593730  0.4202708671845629  0.4202708706538943
  0.8580811305781492  0.8580811339093583  0.4257566014467084
  0.8580811305781492  0.4257566005985122  0.8580811347575615
  0.4257565694655920  0.8580811397905631  0.8580811492153512
  0.8580811305781492  0.8580811339093583  0.8580811347575615
 
  0.00000000E+00  0.00000000E+00  0.00000000E+00
  0.00000000E+00  0.00000000E+00  0.00000000E+00
  0.00000000E+00  0.00000000E+00  0.00000000E+00
  0.00000000E+00  0.00000000E+00  0.00000000E+00
  0.00000000E+00  0.00000000E+00  0.00000000E+00
  0.00000000E+00  0.00000000E+00  0.00000000E+00
  0.00000000E+00  0.00000000E+00  0.00000000E+00
  0.00000000E+00  0.00000000E+00  0.00000000E+00
  0.00000000E+00  0.00000000E+00  0.00000000E+00
  0.00000000E+00  0.00000000E+00  0.00000000E+00
  0.00000000E+00  0.00000000E+00  0.00000000E+00
  0.00000000E+00  0.00000000E+00  0.00000000E+00
  0.00000000E+00  0.00000000E+00  0.00000000E+00
  0.00000000E+00  0.00000000E+00  0.00000000E+00
  0.00000000E+00  0.00000000E+00  0.00000000E+00
  0.00000000E+00  0.00000000E+00  0.00000000E+00
  0.00000000E+00  0.00000000E+00  0.00000000E+00
  0.00000000E+00  0.00000000E+00  0.00000000E+00
  0.00000000E+00  0.00000000E+00  0.00000000E+00
  0.00000000E+00  0.00000000E+00  0.00000000E+00
  0.00000000E+00  0.00000000E+00  0.00000000E+00
  0.00000000E+00  0.00000000E+00  0.00000000E+00
  0.00000000E+00  0.00000000E+00  0.00000000E+00
  0.00000000E+00  0.00000000E+00  0.00000000E+00
