Ge6Ho2Ni1   [ORCC,ORCC,oS18] (STD_PRIM d
   1.00000000000000     
     1.9878357462016913  -10.6798318621901629    0.0000000000000000
     1.9878357462016913   10.6798318621901629    0.0000000000000000
     0.0000000000000000    0.0000000000000000    4.0522144589742561
   6   2   1
Direct
  0.2745047076714038  0.7254952923285961  0.0000000000000000
  0.3914944258357056  0.6085055741642943  0.0000000000000000
  0.5364055082848326  0.4635944917151675  0.5000000000000000
  0.1114938575410517  0.8885061424589412  0.5000000000000000
  0.8944206220280987  0.1055793779719013  0.5000000000000000
  0.7767628979031170  0.2232371020968830  0.5000000000000000
  0.9972997513017268  0.0027002486982733  0.0000000000000000
  0.6608167873424997  0.3391832126575003  0.0000000000000000
  0.2188014420915590  0.7811985579084409  0.5000000000000000
 
  0.00000000E+00  0.00000000E+00  0.00000000E+00
  0.00000000E+00  0.00000000E+00  0.00000000E+00
  0.00000000E+00  0.00000000E+00  0.00000000E+00
  0.00000000E+00  0.00000000E+00  0.00000000E+00
  0.00000000E+00  0.00000000E+00  0.00000000E+00
  0.00000000E+00  0.00000000E+00  0.00000000E+00
  0.00000000E+00  0.00000000E+00  0.00000000E+00
  0.00000000E+00  0.00000000E+00  0.00000000E+00
  0.00000000E+00  0.00000000E+00  0.00000000E+00
