Au1Ti1   [TET,TET,tP4] (STD_PRIM doi:10.
   1.00000000000000     
     3.3598617532471047    0.0000000000000000   -0.0000000000000000
     0.0000000000000000    3.3598617532471047    0.0000000000000000
    -0.0000000000000000    0.0000000000000000    6.2357947310581778
   2   2
Direct
  0.2500000000000000  0.2500000000000000  0.6361502789093494
  0.7500000000000000  0.7500000000000000  0.3638497210906506
  0.2500000000000000  0.2500000000000000  0.1371130995555488
  0.7500000000000000  0.7500000000000000  0.8628869004444512
 
  0.00000000E+00  0.00000000E+00  0.00000000E+00
  0.00000000E+00  0.00000000E+00  0.00000000E+00
  0.00000000E+00  0.00000000E+00  0.00000000E+00
  0.00000000E+00  0.00000000E+00  0.00000000E+00
