Be1Cu1   [CUB,CUB,cP2] (STD_PRIM doi:10.
   1.00000000000000     
     2.6876708147984587    0.0000000000000000    0.0000000000000000
     0.0000000000000000    2.6876708147984587   -0.0000000000000000
     0.0000000000000000   -0.0000000000000000    2.6876708147984587
   1   1
Direct
  0.0000000000000000  0.0000000000000000  0.0000000000000000
  0.5000000000000000  0.5000000000000000  0.5000000000000000
 
  0.00000000E+00  0.00000000E+00  0.00000000E+00
  0.00000000E+00  0.00000000E+00  0.00000000E+00
