Ni4P4Ta5   [BCT,BCT1,tI26] (STD_PRIM doi
   1.00000000000000     
    -4.9785677396321688    4.9785683873761455    1.7654571287295640
     4.9785677396321688   -4.9785683873761455    1.7654571287295640
     4.9785683873761455    4.9785677396321688   -1.7654571287295640
   4   4   5
Direct
  0.3891807392149882  0.9125881810597785  0.3017689202747666
  0.6108192607850118  0.0874118189402216  0.6982310797252334
  0.0874118189402216  0.3891807392149882  0.4765925581552026
  0.9125881810597785  0.6108192607850118  0.5234074418447974
  0.2385745635610755  0.5553197340912509  0.7938942976523263
  0.7614254364389246  0.4446802659087492  0.2061057023476737
  0.4446802659087492  0.2385745635610755  0.6832548294698387
  0.5553197340912509  0.7614254364389246  0.3167451705301612
  0.1311316524729876  0.8048135010918982  0.9359451535648787
  0.8688683475270125  0.1951864989081018  0.0640548464351213
  0.1951864989081018  0.1311316524729876  0.3263181513810894
  0.8048135010918982  0.8688683475270125  0.6736818486189106
  0.5000000000000000  0.5000000000000000  0.0000000000000000
 
  0.00000000E+00  0.00000000E+00  0.00000000E+00
  0.00000000E+00  0.00000000E+00  0.00000000E+00
  0.00000000E+00  0.00000000E+00  0.00000000E+00
  0.00000000E+00  0.00000000E+00  0.00000000E+00
  0.00000000E+00  0.00000000E+00  0.00000000E+00
  0.00000000E+00  0.00000000E+00  0.00000000E+00
  0.00000000E+00  0.00000000E+00  0.00000000E+00
  0.00000000E+00  0.00000000E+00  0.00000000E+00
  0.00000000E+00  0.00000000E+00  0.00000000E+00
  0.00000000E+00  0.00000000E+00  0.00000000E+00
  0.00000000E+00  0.00000000E+00  0.00000000E+00
  0.00000000E+00  0.00000000E+00  0.00000000E+00
  0.00000000E+00  0.00000000E+00  0.00000000E+00
