As2Ca1Ru2   [BCT,BCT2,tI10] (STD_PRIM do
   1.00000000000000     
    -2.1087656397515993    2.1087656397515993    5.1457193196447246
     2.1087656397515993   -2.1087656397515993    5.1457193196447246
     2.1087656397515993    2.1087656397515993   -5.1457193196447246
   2   1   2
Direct
  0.6334174047010737  0.6334174047010737 -0.0000000000000000
  0.3665825952989263  0.3665825952989263  0.0000000000000000
  0.0000000000000000  0.0000000000000000  0.0000000000000000
  0.7500000000000000  0.2500000000000000  0.5000000000000000
  0.2500000000000000  0.7500000000000000  0.5000000000000000
 
  0.00000000E+00  0.00000000E+00  0.00000000E+00
  0.00000000E+00  0.00000000E+00  0.00000000E+00
  0.00000000E+00  0.00000000E+00  0.00000000E+00
  0.00000000E+00  0.00000000E+00  0.00000000E+00
  0.00000000E+00  0.00000000E+00  0.00000000E+00
