Rh1Si1Ta1   [ORC,ORC,oP12] (STD_PRIM doi
   1.00000000000000     
     3.7661770593612403    0.0000000000000000    0.0000000000000000
     0.0000000000000000    6.4239949380045251    0.0000000000000000
     0.0000000000000000    0.0000000000000000    7.3469846150301539
   4   4   4
Direct
  0.2500000000000000  0.1442076478046669  0.4355084335439274
  0.7500000000000000  0.3557923521953330  0.9355084335439274
  0.7500000000000000  0.8557923521953331  0.5644915664560726
  0.2500000000000000  0.6442076478046669  0.0644915664560726
  0.2500000000000000  0.7685412317747974  0.3762638196396431
  0.7500000000000000  0.7314587682252026  0.8762638196396431
  0.7500000000000000  0.2314587682252025  0.6237361803603569
  0.2500000000000000  0.2685412317747975  0.1237361803603569
  0.2500000000000000  0.0249712863099357  0.8264821423816637
  0.7500000000000000  0.4750287136900643  0.3264821423816638
  0.7500000000000000  0.9750287136900714  0.1735178576183363
  0.2500000000000000  0.5249712863099286  0.6735178576183363
 
  0.00000000E+00  0.00000000E+00  0.00000000E+00
  0.00000000E+00  0.00000000E+00  0.00000000E+00
  0.00000000E+00  0.00000000E+00  0.00000000E+00
  0.00000000E+00  0.00000000E+00  0.00000000E+00
  0.00000000E+00  0.00000000E+00  0.00000000E+00
  0.00000000E+00  0.00000000E+00  0.00000000E+00
  0.00000000E+00  0.00000000E+00  0.00000000E+00
  0.00000000E+00  0.00000000E+00  0.00000000E+00
  0.00000000E+00  0.00000000E+00  0.00000000E+00
  0.00000000E+00  0.00000000E+00  0.00000000E+00
  0.00000000E+00  0.00000000E+00  0.00000000E+00
  0.00000000E+00  0.00000000E+00  0.00000000E+00
