Ba1O4S1   [FCC,FCC,cF24] (STD_PRIM doi:1
   1.22474500000000     
    -0.0000000000000000    3.0152386796185291    3.0152386796185291
     3.0152386796185291    0.0000000000000000    3.0152386796185291
     3.0152386796185291    3.0152386796185291    0.0000000000000000
   1   4   1
Direct
  0.5000000000000000  0.5000000000000000  0.5000000000000000
  0.1165428500790447  0.1165428500790447  0.6503714497628731
  0.6503714497628731  0.1165428500790447  0.1165428500790447
  0.1165428500790447  0.6503714497628731  0.1165428500790447
  0.1165428500790447  0.1165428500790447  0.1165428500790447
  0.0000000000000000  0.0000000000000000  0.0000000000000000
 
  0.00000000E+00  0.00000000E+00  0.00000000E+00
  0.00000000E+00  0.00000000E+00  0.00000000E+00
  0.00000000E+00  0.00000000E+00  0.00000000E+00
  0.00000000E+00  0.00000000E+00  0.00000000E+00
  0.00000000E+00  0.00000000E+00  0.00000000E+00
  0.00000000E+00  0.00000000E+00  0.00000000E+00
