F3Y1   [ORC,ORC,oP16] (STD_PRIM doi:10.1
   1.00000000000000     
     4.5403189920282827    0.0000000000000000    0.0000000000000000
     0.0000000000000000    6.3690765803516767    0.0000000000000000
     0.0000000000000000    0.0000000000000000    6.9551127091120142
  12   4
Direct
  0.3983357433882266  0.5264630558236223  0.7500000000000000
  0.8983357433882266  0.9735369441763777  0.2500000000000000
  0.6016642566117734  0.4735369441763778  0.2500000000000000
  0.1016642566117734  0.0264630558236223  0.7500000000000000
  0.6318481048025635  0.1636600929037907  0.9364682261713112
  0.1318481048025635  0.3363399070962094  0.0635317738286888
  0.3681518951974366  0.8363399070962093  0.4364682261713112
  0.8681518951974365  0.6636600929037907  0.5635317738286888
  0.3681518951974366  0.8363399070962093  0.0635317738286888
  0.8681518951974365  0.6636600929037907  0.9364682261713112
  0.6318481048025635  0.1636600929037907  0.5635317738286888
  0.1318481048025635  0.3363399070962094  0.4364682261713112
  0.9471529081930117  0.3670781770164693  0.7500000000000000
  0.4471529081930117  0.1329218229835308  0.2500000000000000
  0.0528470918069883  0.6329218229835307  0.2500000000000000
  0.5528470918069883  0.8670781770164693  0.7500000000000000
 
  0.00000000E+00  0.00000000E+00  0.00000000E+00
  0.00000000E+00  0.00000000E+00  0.00000000E+00
  0.00000000E+00  0.00000000E+00  0.00000000E+00
  0.00000000E+00  0.00000000E+00  0.00000000E+00
  0.00000000E+00  0.00000000E+00  0.00000000E+00
  0.00000000E+00  0.00000000E+00  0.00000000E+00
  0.00000000E+00  0.00000000E+00  0.00000000E+00
  0.00000000E+00  0.00000000E+00  0.00000000E+00
  0.00000000E+00  0.00000000E+00  0.00000000E+00
  0.00000000E+00  0.00000000E+00  0.00000000E+00
  0.00000000E+00  0.00000000E+00  0.00000000E+00
  0.00000000E+00  0.00000000E+00  0.00000000E+00
  0.00000000E+00  0.00000000E+00  0.00000000E+00
  0.00000000E+00  0.00000000E+00  0.00000000E+00
  0.00000000E+00  0.00000000E+00  0.00000000E+00
  0.00000000E+00  0.00000000E+00  0.00000000E+00
