Au3Ge1Na1   [CUB,CUB,cP40] (STD_PRIM doi
   1.00000000000000     
     9.1994304710530734    0.0000000000000000    0.0000000000000000
    -0.0000000000000000    9.1994304710530734   -0.0000000000000000
    -0.0000000000000000    0.0000000000000000    9.1994304710530734
  24   8   8
Direct
  0.2328546286664603  0.1397192835423331  0.4077826247197852
  0.2671453713335397  0.8602807164576669  0.9077826247197851
  0.7671453713335468  0.6397192835423331  0.0922173752802149
  0.7328546286664532  0.3602807164576669  0.5922173752802149
  0.4077826247197852  0.2328546286664603  0.1397192835423331
  0.9077826247197851  0.2671453713335397  0.8602807164576669
  0.0922173752802149  0.7671453713335468  0.6397192835423331
  0.5922173752802149  0.7328546286664532  0.3602807164576669
  0.1397192835423331  0.4077826247197852  0.2328546286664603
  0.8602807164576669  0.9077826247197851  0.2671453713335397
  0.6397192835423331  0.0922173752802149  0.7671453713335468
  0.3602807164576669  0.5922173752802149  0.7328546286664532
  0.7671453713335468  0.8602807164576669  0.5922173752802149
  0.7328546286664532  0.1397192835423331  0.0922173752802149
  0.2328546286664603  0.3602807164576669  0.9077826247197851
  0.2671453713335397  0.6397192835423331  0.4077826247197852
  0.5922173752802149  0.7671453713335468  0.8602807164576669
  0.0922173752802149  0.7328546286664532  0.1397192835423331
  0.9077826247197851  0.2328546286664603  0.3602807164576669
  0.4077826247197852  0.2671453713335397  0.6397192835423331
  0.8602807164576669  0.5922173752802149  0.7671453713335468
  0.1397192835423331  0.0922173752802149  0.7328546286664532
  0.3602807164576669  0.9077826247197851  0.2328546286664603
  0.6397192835423331  0.4077826247197852  0.2671453713335397
  0.3883244389817127  0.3883244389817127  0.3883244389817127
  0.1116755610182873  0.6116755610182874  0.8883244389817126
  0.6116755610182874  0.8883244389817126  0.1116755610182873
  0.8883244389817126  0.1116755610182873  0.6116755610182874
  0.6116755610182874  0.6116755610182874  0.6116755610182874
  0.8883244389817126  0.3883244389817127  0.1116755610182873
  0.3883244389817127  0.1116755610182873  0.8883244389817126
  0.1116755610182873  0.8883244389817126  0.3883244389817127
  0.1002012253630153  0.1002012253630153  0.1002012253630153
  0.3997987746369847  0.8997987746369848  0.6002012253630152
  0.8997987746369848  0.6002012253630152  0.3997987746369847
  0.6002012253630152  0.3997987746369847  0.8997987746369848
  0.8997987746369848  0.8997987746369848  0.8997987746369848
  0.6002012253630152  0.1002012253630153  0.3997987746369847
  0.1002012253630153  0.3997987746369847  0.6002012253630152
  0.3997987746369847  0.6002012253630152  0.1002012253630153
 
  0.00000000E+00  0.00000000E+00  0.00000000E+00
  0.00000000E+00  0.00000000E+00  0.00000000E+00
  0.00000000E+00  0.00000000E+00  0.00000000E+00
  0.00000000E+00  0.00000000E+00  0.00000000E+00
  0.00000000E+00  0.00000000E+00  0.00000000E+00
  0.00000000E+00  0.00000000E+00  0.00000000E+00
  0.00000000E+00  0.00000000E+00  0.00000000E+00
  0.00000000E+00  0.00000000E+00  0.00000000E+00
  0.00000000E+00  0.00000000E+00  0.00000000E+00
  0.00000000E+00  0.00000000E+00  0.00000000E+00
  0.00000000E+00  0.00000000E+00  0.00000000E+00
  0.00000000E+00  0.00000000E+00  0.00000000E+00
  0.00000000E+00  0.00000000E+00  0.00000000E+00
  0.00000000E+00  0.00000000E+00  0.00000000E+00
  0.00000000E+00  0.00000000E+00  0.00000000E+00
  0.00000000E+00  0.00000000E+00  0.00000000E+00
  0.00000000E+00  0.00000000E+00  0.00000000E+00
  0.00000000E+00  0.00000000E+00  0.00000000E+00
  0.00000000E+00  0.00000000E+00  0.00000000E+00
  0.00000000E+00  0.00000000E+00  0.00000000E+00
  0.00000000E+00  0.00000000E+00  0.00000000E+00
  0.00000000E+00  0.00000000E+00  0.00000000E+00
  0.00000000E+00  0.00000000E+00  0.00000000E+00
  0.00000000E+00  0.00000000E+00  0.00000000E+00
  0.00000000E+00  0.00000000E+00  0.00000000E+00
  0.00000000E+00  0.00000000E+00  0.00000000E+00
  0.00000000E+00  0.00000000E+00  0.00000000E+00
  0.00000000E+00  0.00000000E+00  0.00000000E+00
  0.00000000E+00  0.00000000E+00  0.00000000E+00
  0.00000000E+00  0.00000000E+00  0.00000000E+00
  0.00000000E+00  0.00000000E+00  0.00000000E+00
  0.00000000E+00  0.00000000E+00  0.00000000E+00
  0.00000000E+00  0.00000000E+00  0.00000000E+00
  0.00000000E+00  0.00000000E+00  0.00000000E+00
  0.00000000E+00  0.00000000E+00  0.00000000E+00
  0.00000000E+00  0.00000000E+00  0.00000000E+00
  0.00000000E+00  0.00000000E+00  0.00000000E+00
  0.00000000E+00  0.00000000E+00  0.00000000E+00
  0.00000000E+00  0.00000000E+00  0.00000000E+00
  0.00000000E+00  0.00000000E+00  0.00000000E+00
