B1N1   [HEX,HEX,hP4] (STD_PRIM doi:10.10
   1.00000000000000     
     1.2564006443539240   -2.1761497506832663   -0.0000000000000000
     1.2563974621691751    2.1761479134480450    0.0000000000000000
    -0.0000000000000000    0.0000000000000000    7.8848884222930575
   2   2
Direct
  0.0000310474403913  0.0000620948807896  0.2500000000000000
  0.9999689525596087  0.9999379051192104  0.7500000000000000
  0.6666902090691824  0.3333804181383577  0.2500000000000000
  0.3333097909308176  0.6666195818616424  0.7500000000000000
 
  0.00000000E+00  0.00000000E+00  0.00000000E+00
  0.00000000E+00  0.00000000E+00  0.00000000E+00
  0.00000000E+00  0.00000000E+00  0.00000000E+00
  0.00000000E+00  0.00000000E+00  0.00000000E+00
