La1Zn5   [HEX,HEX,hP6] (STD_PRIM doi:10.
   1.00000000000000     
     2.7289190573627535   -4.7266264570952572    0.0000000000000000
     2.7291014368758000    4.7267317539562086    0.0000000000000000
     0.0000000000000000    0.0000000000000000    4.2487321298786798
   1   5
Direct
  0.0000000000000000  0.0000000000000000  0.0000000000000000
  0.6666891368233614  0.3333782736467158  0.0000000000000000
  0.3333108631766385  0.6666217263532841  0.0000000000000000
  0.0000000000000000  0.5000000000000000  0.5000000000000000
  0.5000000000000000  0.5000000000000000  0.5000000000000000
  0.5000000000000000  0.0000000000000000  0.5000000000000000
 
  0.00000000E+00  0.00000000E+00  0.00000000E+00
  0.00000000E+00  0.00000000E+00  0.00000000E+00
  0.00000000E+00  0.00000000E+00  0.00000000E+00
  0.00000000E+00  0.00000000E+00  0.00000000E+00
  0.00000000E+00  0.00000000E+00  0.00000000E+00
  0.00000000E+00  0.00000000E+00  0.00000000E+00
