Al1N1   [ORCC,ORCC,oS8] (STD_PRIM doi:10
   1.00000000000000     
     1.6594527357439619   -2.8634681354190841    0.0000000000000000
     1.6594527357439619    2.8634681354190841    0.0000000000000000
     0.0000000000000000    0.0000000000000000    4.1914306115168118
   2   2
Direct
  0.3335728996429195  0.6664271003570805  0.7500000000000000
  0.6664271003570805  0.3335728996429195  0.2500000000000000
  0.6676810041025562  0.3323189958974438  0.7500000000000000
  0.3323189958974438  0.6676810041025562  0.2500000000000000
 
  0.00000000E+00  0.00000000E+00  0.00000000E+00
  0.00000000E+00  0.00000000E+00  0.00000000E+00
  0.00000000E+00  0.00000000E+00  0.00000000E+00
  0.00000000E+00  0.00000000E+00  0.00000000E+00
