Ge1Mn1Pd1   [HEX,HEX,hP9] (STD_PRIM doi:
   1.00000000000000     
     3.3372424512465400   -5.7802734827347120    0.0000000000000000
     3.3371647359943610    5.7802286138129482    0.0000000000000000
     0.0000000000000000    0.0000000000000000    3.8780200231059032
   3   3   3
Direct
  0.6666688564678143  0.3333341677868993  0.0000000000000000
  0.3333346886809149  0.6666658322131006  0.0000000000000000
  0.0000106206896491  0.0000000000000000  0.5000000000000000
  0.0000025278375675  0.4228505254399183  0.5000000000000000
  0.5771520023976492  0.5771494745600816  0.5000000000000000
  0.4228289737354353 -0.0000000000000000  0.5000000000000000
  0.9999976842797368  0.7483159841303798  0.0000000000000000
  0.2516817001493498  0.2516840158696201  0.0000000000000000
  0.7483229457618762  0.0000000000000000  0.0000000000000000
 
  0.00000000E+00  0.00000000E+00  0.00000000E+00
  0.00000000E+00  0.00000000E+00  0.00000000E+00
  0.00000000E+00  0.00000000E+00  0.00000000E+00
  0.00000000E+00  0.00000000E+00  0.00000000E+00
  0.00000000E+00  0.00000000E+00  0.00000000E+00
  0.00000000E+00  0.00000000E+00  0.00000000E+00
  0.00000000E+00  0.00000000E+00  0.00000000E+00
  0.00000000E+00  0.00000000E+00  0.00000000E+00
  0.00000000E+00  0.00000000E+00  0.00000000E+00
