Ni3Sb1   [ORC,ORC,oP8] (STD_PRIM doi:10.
   1.00000000000000     
     4.2711183000142920    0.0000000000000000    0.0000000000000000
    -0.0000000000000001    4.4236309470218496    0.0000000000000000
     0.0000000000000000    0.0000000000000000    5.3126999285138226
   6   2
Direct
  0.7500000000000000  0.8186766775964618  0.5006631415615916
  0.7500000000000000  0.8186766775964618  0.9993368584384084
  0.2500000000000000  0.1813233224035382  0.4993368584384084
  0.2500000000000000  0.1813233224035382  0.0006631415615917
  0.2500000000000000  0.6884337201263905  0.2500000000000000
  0.7500000000000000  0.3115662798736096  0.7500000000000000
  0.7500000000000000  0.3139817608882828  0.2500000000000000
  0.2500000000000000  0.6860182391117173  0.7500000000000000
 
  0.00000000E+00  0.00000000E+00  0.00000000E+00
  0.00000000E+00  0.00000000E+00  0.00000000E+00
  0.00000000E+00  0.00000000E+00  0.00000000E+00
  0.00000000E+00  0.00000000E+00  0.00000000E+00
  0.00000000E+00  0.00000000E+00  0.00000000E+00
  0.00000000E+00  0.00000000E+00  0.00000000E+00
  0.00000000E+00  0.00000000E+00  0.00000000E+00
  0.00000000E+00  0.00000000E+00  0.00000000E+00
