Ag1S3Ta1   [ORCC,ORCC,oS20] (STD_PRIM do
   1.00000000000000     
     1.7107447721920075   -7.1832658372718114    0.0000000000000000
     1.7107447721920075    7.1832658372718114    0.0000000000000000
     0.0000000000000000    0.0000000000000000    7.8432471134771067
   2   6   2
Direct
  0.9967507465319122  0.0032492534680878  0.7557251978328258
  0.0032492534680878  0.9967507465319122  0.2557251978328257
  0.8933434517086881  0.1066565482913118  0.0111428344517313
  0.1066565482913118  0.8933434517086881  0.5111428344517313
  0.6738904471207742  0.3261095528792258  0.8307391575482094
  0.3261095528792258  0.6738904471207742  0.3307391575482093
  0.6737134467348650  0.3262865532651350  0.1907338793551940
  0.3262865532651350  0.6737134467348650  0.6907338793551939
  0.2620004371727534  0.7379995628272465  0.0106589308120393
  0.7379995628272465  0.2620004371727534  0.5106589308120393
 
  0.00000000E+00  0.00000000E+00  0.00000000E+00
  0.00000000E+00  0.00000000E+00  0.00000000E+00
  0.00000000E+00  0.00000000E+00  0.00000000E+00
  0.00000000E+00  0.00000000E+00  0.00000000E+00
  0.00000000E+00  0.00000000E+00  0.00000000E+00
  0.00000000E+00  0.00000000E+00  0.00000000E+00
  0.00000000E+00  0.00000000E+00  0.00000000E+00
  0.00000000E+00  0.00000000E+00  0.00000000E+00
  0.00000000E+00  0.00000000E+00  0.00000000E+00
  0.00000000E+00  0.00000000E+00  0.00000000E+00
