Li3Sb1   [FCC,FCC,cF16] (STD_PRIM doi:10
   1.22474500000000     
     0.0000000000000000    2.6777008183333399    2.6777008183333399
     2.6777008183333399    0.0000000000000000    2.6777008183333399
     2.6777008183333399    2.6777008183333399    0.0000000000000000
   3   1
Direct
  0.5000000000000000  0.5000000000000000  0.5000000000000000
  0.2500000000000000  0.2500000000000000  0.2500000000000000
  0.7500000000000000  0.7500000000000000  0.7500000000000000
  0.0000000000000000  0.0000000000000000  0.0000000000000000
 
  0.00000000E+00  0.00000000E+00  0.00000000E+00
  0.00000000E+00  0.00000000E+00  0.00000000E+00
  0.00000000E+00  0.00000000E+00  0.00000000E+00
  0.00000000E+00  0.00000000E+00  0.00000000E+00
