Co1Te2   [ORC,ORC,oP6] (STD_PRIM doi:10.
   1.00000000000000     
     4.0558151661681707    0.0000000000000000    0.0000000000000000
     0.0000000000000000    5.4155883723444243    0.0000143983069649
     0.0000000000000000    0.0000169896906026    6.5946119757811532
   2   4
Direct
  0.9996361608086703 -0.0000000000000000  0.0000000000000000
  0.4999047359092346  0.5000000000000000  0.5000000000000000
  0.9998700869639391  0.2111647407441105  0.6296071922941661
  0.9998700869639391  0.7888352592558896  0.3703928077058339
  0.4996594646771029  0.7111657513121141  0.8703861723271106
  0.4996594646771029  0.2888342486878859  0.1296138276728894
 
  0.00000000E+00  0.00000000E+00  0.00000000E+00
  0.00000000E+00  0.00000000E+00  0.00000000E+00
  0.00000000E+00  0.00000000E+00  0.00000000E+00
  0.00000000E+00  0.00000000E+00  0.00000000E+00
  0.00000000E+00  0.00000000E+00  0.00000000E+00
  0.00000000E+00  0.00000000E+00  0.00000000E+00
