Ag1Ti1   [TET,TET,tP4] (STD_PRIM doi:10.
   1.00000000000000     
     2.9637005637344411   -0.0000000000000000   -0.0000000000000000
     0.0000000000000001    2.9637005637344411   -0.0000000000000000
     0.0000000000000000    0.0000000000000000    8.2583422131758795
   2   2
Direct
  0.2500000000000000  0.2500000000000000  0.6255234347300722
  0.7500000000000000  0.7500000000000000  0.3744765652699278
  0.2500000000000000  0.2500000000000000  0.1166545001439390
  0.7500000000000000  0.7500000000000000  0.8833454998560610
 
  0.00000000E+00  0.00000000E+00  0.00000000E+00
  0.00000000E+00  0.00000000E+00  0.00000000E+00
  0.00000000E+00  0.00000000E+00  0.00000000E+00
  0.00000000E+00  0.00000000E+00  0.00000000E+00
