Ag1Er1Sn1   [HEX,HEX,hP6] (STD_PRIM doi:
   1.00000400000000     
     2.3768536966145040   -4.1167763175383358    0.0000000000000000
     2.3768536966145040    4.1167763175383358    0.0000000000000000
     0.0000000000000000    0.0000000000000000    7.3647609856498155
   2   2   2
Direct
  0.6666694679103853  0.3333305320896147  0.3058960751313353
  0.3333305320896147  0.6666694679103853  0.8058960751313354
  0.9999974824549417  0.0000025175450583  0.9943762724302957
  0.0000025175450583  0.9999974824549417  0.4943762724302957
  0.6666659929338659  0.3333340070661199  0.7157276524383814
  0.3333340070661199  0.6666659929338659  0.2157276524383814
 
  0.00000000E+00  0.00000000E+00  0.00000000E+00
  0.00000000E+00  0.00000000E+00  0.00000000E+00
  0.00000000E+00  0.00000000E+00  0.00000000E+00
  0.00000000E+00  0.00000000E+00  0.00000000E+00
  0.00000000E+00  0.00000000E+00  0.00000000E+00
  0.00000000E+00  0.00000000E+00  0.00000000E+00
