Mn2O5Sr2   [ORC,ORC,oP18] (STD_PRIM doi:
   1.00000000000000     
     3.8612780394343651    0.0000000000000000    0.0000000000000000
     0.0000000000000000    5.6187792441694526    0.0000000000000000
     0.0000000000000000    0.0000000000000000   11.0131802776817445
   4  10   4
Direct
  0.5000000000000000  0.2602960706855544  0.8762157441223875
  0.5000000000000000  0.7397039293144456  0.1237842558776126
  0.5000000000000000  0.2397039293144456  0.3762157441223875
  0.5000000000000000  0.7602960706855544  0.6237842558776125
  0.0000000000000000  0.2960280181077145  0.9014245999142592
  0.0000000000000000  0.7039719818922855  0.0985754000857408
  0.0000000000000000  0.2039719818922855  0.4014245999142592
  0.0000000000000000  0.7960280181077145  0.5985754000857408
  0.5000000000000000  0.5339689769428898  0.7719186542238043
  0.5000000000000000  0.4660310230571102  0.2280813457761957
  0.5000000000000000  0.9660310230571102  0.2719186542237972
  0.5000000000000000  0.0339689769428897  0.7280813457761957
  0.5000000000000000  0.0000000000000000  0.0000000000000000
  0.5000000000000000  0.5000000000000000  0.5000000000000000
  0.0000000000000000  0.2869204574037437  0.6328954604843300
  0.0000000000000000  0.7130795425962563  0.3671045395156700
  0.0000000000000000  0.2130795425962563  0.1328954604843300
  0.0000000000000000  0.7869204574037437  0.8671045395156700
 
  0.00000000E+00  0.00000000E+00  0.00000000E+00
  0.00000000E+00  0.00000000E+00  0.00000000E+00
  0.00000000E+00  0.00000000E+00  0.00000000E+00
  0.00000000E+00  0.00000000E+00  0.00000000E+00
  0.00000000E+00  0.00000000E+00  0.00000000E+00
  0.00000000E+00  0.00000000E+00  0.00000000E+00
  0.00000000E+00  0.00000000E+00  0.00000000E+00
  0.00000000E+00  0.00000000E+00  0.00000000E+00
  0.00000000E+00  0.00000000E+00  0.00000000E+00
  0.00000000E+00  0.00000000E+00  0.00000000E+00
  0.00000000E+00  0.00000000E+00  0.00000000E+00
  0.00000000E+00  0.00000000E+00  0.00000000E+00
  0.00000000E+00  0.00000000E+00  0.00000000E+00
  0.00000000E+00  0.00000000E+00  0.00000000E+00
  0.00000000E+00  0.00000000E+00  0.00000000E+00
  0.00000000E+00  0.00000000E+00  0.00000000E+00
  0.00000000E+00  0.00000000E+00  0.00000000E+00
  0.00000000E+00  0.00000000E+00  0.00000000E+00
