C2Cd1N2   [CUB,CUB,cP10] (STD_PRIM doi:1
   1.00000000000000     
     6.4566629261671160   -0.0000000000000000   -0.0000000000000000
    -0.0000000000000000    6.4566629261671160   -0.0000000000000000
     0.0000000000000000    0.0000000000000000    6.4566629261671160
   4   2   4
Direct
  0.1996468094736294  0.1996468094736294  0.1996468094736294
  0.8003531905263708  0.8003531905263708  0.1996468094736294
  0.8003531905263708  0.1996468094736294  0.8003531905263708
  0.1996468094736294  0.8003531905263708  0.8003531905263708
  0.0000000000000000  0.0000000000000000  0.0000000000000000
  0.5000000000000000  0.5000000000000000  0.5000000000000000
  0.3040121246820215  0.3040121246820215  0.3040121246820215
  0.6959878753179786  0.6959878753179786  0.3040121246820215
  0.6959878753179786  0.3040121246820215  0.6959878753179786
  0.3040121246820215  0.6959878753179786  0.6959878753179786
 
  0.00000000E+00  0.00000000E+00  0.00000000E+00
  0.00000000E+00  0.00000000E+00  0.00000000E+00
  0.00000000E+00  0.00000000E+00  0.00000000E+00
  0.00000000E+00  0.00000000E+00  0.00000000E+00
  0.00000000E+00  0.00000000E+00  0.00000000E+00
  0.00000000E+00  0.00000000E+00  0.00000000E+00
  0.00000000E+00  0.00000000E+00  0.00000000E+00
  0.00000000E+00  0.00000000E+00  0.00000000E+00
  0.00000000E+00  0.00000000E+00  0.00000000E+00
  0.00000000E+00  0.00000000E+00  0.00000000E+00
