C1Ir1 #187 - (C1Ir1_ICSD_169404) - C1Ir1
    1.000000000000000     
     1.5166234300348256   -2.6268688367696993    0.0000000000000000
     1.5166823200233619    2.6269028369204337    0.0000000000000000
     0.0000000000000000    0.0000000000000000    2.6487156026083576
   1   1
Direct
  0.6666896756145775  0.3333793512291550  0.5000000000000000
  0.0000103243854213  0.0000206487708425  0.0000000000000000
 
  0.00000000E+00  0.00000000E+00  0.00000000E+00
  0.00000000E+00  0.00000000E+00  0.00000000E+00
