Be1Te1   [FCC,FCC,cF8] (STD_PRIM doi:10.
   1.22474500000000     
     0.0000000000000000    2.3138404463793338    2.3138404463793338
     2.3138404463793338    0.0000000000000000    2.3138404463793338
     2.3138404463793338    2.3138404463793338    0.0000000000000000
   1   1
Direct
  0.0000000000000000  0.0000000000000000  0.0000000000000000
  0.7500000000000000  0.7500000000000000  0.7500000000000000
 
  0.00000000E+00  0.00000000E+00  0.00000000E+00
  0.00000000E+00  0.00000000E+00  0.00000000E+00
