Ba3Pb5   [ORCC,ORCC,oS32] (STD_PRIM doi:
   1.00000000000000     
     4.6044112284048895   -5.6734331944604488    0.0000000000000000
     4.6044112284048895    5.6734331944604488    0.0000000000000000
     0.0000000000000000    0.0000000000000000   11.5366841704430492
   6  10
Direct
  0.3639852611367210  0.3639852611367210  0.2500000000000000
  0.6360147388632790  0.6360147388632790  0.7500000000000000
  0.7934518325472739  0.2065481674527261  0.0000000000000000
  0.2065481674527261  0.7934518325472739  0.5000000000000000
  0.2065481674527261  0.7934518325472739  0.0000000000000000
  0.7934518325472739  0.2065481674527261  0.5000000000000000
  0.9620840913677412  0.9620840913677412  0.2500000000000000
  0.0379159086322588  0.0379159086322588  0.7500000000000000
  0.6957535102515842  0.6957535102515842  0.4454556086313327
  0.3042464897484158  0.3042464897484158  0.9454556086313327
  0.6957535102515842  0.6957535102515842  0.0545443913686673
  0.3042464897484158  0.3042464897484158  0.5545443913686673
  0.5133955828498742  0.9153769119912475  0.2500000000000000
  0.4866044171501258  0.0846230880087526  0.7500000000000000
  0.9153769119912475  0.5133955828498742  0.2500000000000000
  0.0846230880087526  0.4866044171501258  0.7500000000000000
 
  0.00000000E+00  0.00000000E+00  0.00000000E+00
  0.00000000E+00  0.00000000E+00  0.00000000E+00
  0.00000000E+00  0.00000000E+00  0.00000000E+00
  0.00000000E+00  0.00000000E+00  0.00000000E+00
  0.00000000E+00  0.00000000E+00  0.00000000E+00
  0.00000000E+00  0.00000000E+00  0.00000000E+00
  0.00000000E+00  0.00000000E+00  0.00000000E+00
  0.00000000E+00  0.00000000E+00  0.00000000E+00
  0.00000000E+00  0.00000000E+00  0.00000000E+00
  0.00000000E+00  0.00000000E+00  0.00000000E+00
  0.00000000E+00  0.00000000E+00  0.00000000E+00
  0.00000000E+00  0.00000000E+00  0.00000000E+00
  0.00000000E+00  0.00000000E+00  0.00000000E+00
  0.00000000E+00  0.00000000E+00  0.00000000E+00
  0.00000000E+00  0.00000000E+00  0.00000000E+00
  0.00000000E+00  0.00000000E+00  0.00000000E+00
