Ni1P3   [BCC,BCC,cI32] (STD_PRIM doi:10.
   1.00000000000000     
    -3.9343118190990620    3.9343118190990620    3.9343118190990620
     3.9343118190990620   -3.9343118190990620    3.9343118190990620
     3.9343118190990620    3.9343118190990620   -3.9343118190990620
   4  12
Direct
  0.0000000000000000 -0.0000000000000000  0.5000000000000000
  0.5000000000000000  0.5000000000000000  0.5000000000000000
  0.5000000000000000  0.0000000000000000  0.0000000000000000
  0.0000000000000000  0.5000000000000000  0.0000000000000000
  0.7846720407405233  0.1413509618190069  0.6433210789215164
  0.4980298828974976  0.1413509618190069  0.3566789210784836
  0.5019701171025025  0.8586490381809930  0.6433210789215164
  0.2153279592594767  0.8586490381809930  0.3566789210784836
  0.3566789210784836  0.2153279592594767  0.8586490381809930
  0.6433210789215164  0.5019701171025025  0.8586490381809930
  0.3566789210784836  0.4980298828974976  0.1413509618190069
  0.6433210789215164  0.7846720407405233  0.1413509618190069
  0.8586490381809930  0.6433210789215164  0.5019701171025025
  0.8586490381809930  0.3566789210784836  0.2153279592594767
  0.1413509618190069  0.6433210789215164  0.7846720407405233
  0.1413509618190069  0.3566789210784836  0.4980298828974976
 
  0.00000000E+00  0.00000000E+00  0.00000000E+00
  0.00000000E+00  0.00000000E+00  0.00000000E+00
  0.00000000E+00  0.00000000E+00  0.00000000E+00
  0.00000000E+00  0.00000000E+00  0.00000000E+00
  0.00000000E+00  0.00000000E+00  0.00000000E+00
  0.00000000E+00  0.00000000E+00  0.00000000E+00
  0.00000000E+00  0.00000000E+00  0.00000000E+00
  0.00000000E+00  0.00000000E+00  0.00000000E+00
  0.00000000E+00  0.00000000E+00  0.00000000E+00
  0.00000000E+00  0.00000000E+00  0.00000000E+00
  0.00000000E+00  0.00000000E+00  0.00000000E+00
  0.00000000E+00  0.00000000E+00  0.00000000E+00
  0.00000000E+00  0.00000000E+00  0.00000000E+00
  0.00000000E+00  0.00000000E+00  0.00000000E+00
  0.00000000E+00  0.00000000E+00  0.00000000E+00
  0.00000000E+00  0.00000000E+00  0.00000000E+00
