Dy1Hg2   [HEX,HEX,hP3] (STD_PRIM doi:10.
   1.00000000000000     
     2.4731999463855137   -4.2837661789116739    0.0000000000000000
     2.4731999463855137    4.2837661789116739    0.0000000000000000
     0.0000000000000000    0.0000000000000000    3.4274496925763938
   1   2
Direct
 -0.0000000000000000  0.0000000000000000  0.0000000000000000
  0.3333311157481270  0.6666688842518729  0.5000000000000000
  0.6666688842518729  0.3333311157481270  0.5000000000000000
 
  0.00000000E+00  0.00000000E+00  0.00000000E+00
  0.00000000E+00  0.00000000E+00  0.00000000E+00
  0.00000000E+00  0.00000000E+00  0.00000000E+00
