Ba1O3Ti1   [HEX,HEX,hP30] (STD_PRIM doi:
   1.00000000000000     
     2.9103670203579548   -5.0409035479328246    0.0000000000000000
     2.9103522370251969    5.0408950127716752    0.0000000000000000
    -0.0000000000000000    0.0000000000000000   14.2056224302346230
   6  18   6
Direct
  0.0000013435721835  0.0000026871443670  0.2500000000000000
  0.9999986564278165  0.9999973128556329  0.7500000000000000
  0.6666715306002967  0.3333430612005934  0.0976075477727971
  0.3333284693997033  0.6666569387994066  0.5976075477727970
  0.3333284693997033  0.6666569387994066  0.9023924522272030
  0.6666715306002967  0.3333430612005934  0.4023924522272029
  0.0351996125640836  0.5175949828724054  0.2500000000000000
  0.4823953703083289  0.5175949828724054  0.2500000000000000
  0.4823970689758994  0.9647941379517988  0.2500000000000000
  0.9648003874359165  0.4824050171275946  0.7500000000000000
  0.5176046296916711  0.4824050171275946  0.7500000000000000
  0.5176029310241006  0.0352058620482012  0.7500000000000000
  0.6698731725364138  0.8349348579359207  0.0806390665462257
  0.1650616853994998  0.8349348579359207  0.0806390665462257
  0.1650624589353712  0.3301249178707494  0.0806386994067569
  0.3301268274635861  0.1650651420640793  0.5806390665462328
  0.8349383146005003  0.1650651420640793  0.5806390665462328
  0.8349375410646289  0.6698750821292505  0.5806386994067640
  0.8349383146005003  0.1650651420640793  0.9193609334537672
  0.3301268274635861  0.1650651420640793  0.9193609334537672
  0.8349375410646289  0.6698750821292505  0.9193613005932360
  0.1650616853994998  0.8349348579359207  0.4193609334537742
  0.6698731725364138  0.8349348579359207  0.4193609334537742
  0.1650624589353712  0.3301249178707494  0.4193613005932431
  0.0000000000000000  0.0000000000000000  0.0000000000000000
 -0.0000000000000000 -0.0000000000000000  0.5000000000000000
  0.6666665257488510  0.3333330514977020  0.8464631358886668
  0.3333334742511490  0.6666669485022980  0.3464631358886668
  0.3333334742511490  0.6666669485022980  0.1535368641113332
  0.6666665257488510  0.3333330514977020  0.6535368641113332
 
  0.00000000E+00  0.00000000E+00  0.00000000E+00
  0.00000000E+00  0.00000000E+00  0.00000000E+00
  0.00000000E+00  0.00000000E+00  0.00000000E+00
  0.00000000E+00  0.00000000E+00  0.00000000E+00
  0.00000000E+00  0.00000000E+00  0.00000000E+00
  0.00000000E+00  0.00000000E+00  0.00000000E+00
  0.00000000E+00  0.00000000E+00  0.00000000E+00
  0.00000000E+00  0.00000000E+00  0.00000000E+00
  0.00000000E+00  0.00000000E+00  0.00000000E+00
  0.00000000E+00  0.00000000E+00  0.00000000E+00
  0.00000000E+00  0.00000000E+00  0.00000000E+00
  0.00000000E+00  0.00000000E+00  0.00000000E+00
  0.00000000E+00  0.00000000E+00  0.00000000E+00
  0.00000000E+00  0.00000000E+00  0.00000000E+00
  0.00000000E+00  0.00000000E+00  0.00000000E+00
  0.00000000E+00  0.00000000E+00  0.00000000E+00
  0.00000000E+00  0.00000000E+00  0.00000000E+00
  0.00000000E+00  0.00000000E+00  0.00000000E+00
  0.00000000E+00  0.00000000E+00  0.00000000E+00
  0.00000000E+00  0.00000000E+00  0.00000000E+00
  0.00000000E+00  0.00000000E+00  0.00000000E+00
  0.00000000E+00  0.00000000E+00  0.00000000E+00
  0.00000000E+00  0.00000000E+00  0.00000000E+00
  0.00000000E+00  0.00000000E+00  0.00000000E+00
  0.00000000E+00  0.00000000E+00  0.00000000E+00
  0.00000000E+00  0.00000000E+00  0.00000000E+00
  0.00000000E+00  0.00000000E+00  0.00000000E+00
  0.00000000E+00  0.00000000E+00  0.00000000E+00
  0.00000000E+00  0.00000000E+00  0.00000000E+00
  0.00000000E+00  0.00000000E+00  0.00000000E+00
