Ag1As1S1   [ORC,ORC,oP12] (STD_PRIM doi:
   1.00000000000000     
     3.9470550740952630    0.0000000000000000    0.0000000000000000
     0.0000000000000000    6.1996721240937980    0.0000000000000000
     0.0000000000000000    0.0000000000000000   12.1597992977762530
   4   4   4
Direct
  0.2480663637888106  0.5606549246375060  0.3300357504080148
  0.7480663637888105  0.4393450753624939  0.6699642495919851
  0.2480663637888106  0.9393450753624940  0.8300357504080149
  0.7480663637888105  0.0606549246375061  0.1699642495919852
  0.2470211369760653  0.8673295555014930  0.4882422623423786
  0.7470211369760652  0.1326704444985071  0.5117577376576143
  0.2470211369760653  0.6326704444985070  0.9882422623423857
  0.7470211369760652  0.3673295555014929  0.0117577376576143
  0.2479124992351262  0.7905368618051900  0.1535343825495504
  0.7479124992351261  0.2094631381948101  0.8464656174504496
  0.2479124992351262  0.7094631381948100  0.6535343825495504
  0.7479124992351261  0.2905368618051898  0.3464656174504496
 
  0.00000000E+00  0.00000000E+00  0.00000000E+00
  0.00000000E+00  0.00000000E+00  0.00000000E+00
  0.00000000E+00  0.00000000E+00  0.00000000E+00
  0.00000000E+00  0.00000000E+00  0.00000000E+00
  0.00000000E+00  0.00000000E+00  0.00000000E+00
  0.00000000E+00  0.00000000E+00  0.00000000E+00
  0.00000000E+00  0.00000000E+00  0.00000000E+00
  0.00000000E+00  0.00000000E+00  0.00000000E+00
  0.00000000E+00  0.00000000E+00  0.00000000E+00
  0.00000000E+00  0.00000000E+00  0.00000000E+00
  0.00000000E+00  0.00000000E+00  0.00000000E+00
  0.00000000E+00  0.00000000E+00  0.00000000E+00
