Ca1Mg1Si1   [ORC,ORC,oP12] (STD_PRIM doi
   1.00000000000000     
     4.4286020847784249    0.0000000000000000    0.0000000000000000
     0.0000000000000000    7.4698980231338661    0.0000000000000000
     0.0000000000000000    0.0000000000000000    8.3112597403689747
   4   4   4
Direct
  0.2500000000000000  0.5194889727534626  0.3202447073975255
  0.7500000000000000  0.9805110272465374  0.8202447073975255
  0.7500000000000000  0.4805110272465374  0.6797552926024745
  0.2500000000000000  0.0194889727534626  0.1797552926024745
  0.2500000000000000  0.6433031094889078  0.9369921071867524
  0.7500000000000000  0.8566968905110922  0.4369921071867524
  0.7500000000000000  0.3566968905110922  0.0630078928132477
  0.2500000000000000  0.1433031094889078  0.5630078928132476
  0.2500000000000000  0.2699378328405188  0.8844446295804029
  0.7500000000000000  0.2300621671594812  0.3844446295804029
  0.7500000000000000  0.7300621671594812  0.1155553704195970
  0.2500000000000000  0.7699378328405188  0.6155553704195971
 
  0.00000000E+00  0.00000000E+00  0.00000000E+00
  0.00000000E+00  0.00000000E+00  0.00000000E+00
  0.00000000E+00  0.00000000E+00  0.00000000E+00
  0.00000000E+00  0.00000000E+00  0.00000000E+00
  0.00000000E+00  0.00000000E+00  0.00000000E+00
  0.00000000E+00  0.00000000E+00  0.00000000E+00
  0.00000000E+00  0.00000000E+00  0.00000000E+00
  0.00000000E+00  0.00000000E+00  0.00000000E+00
  0.00000000E+00  0.00000000E+00  0.00000000E+00
  0.00000000E+00  0.00000000E+00  0.00000000E+00
  0.00000000E+00  0.00000000E+00  0.00000000E+00
  0.00000000E+00  0.00000000E+00  0.00000000E+00
