Ir1Si3Y1   [BCT,BCT2,tI10] (STD_PRIM doi
   1.00000000000000     
    -2.0929724130161853    2.0929724130161853    4.8817900048356400
     2.0929724130161853   -2.0929724130161853    4.8817900048356400
     2.0929724130161853    2.0929724130161853   -4.8817900048356400
   1   3   1
Direct
  0.6526513346605850  0.6526513346605850 -0.0000000000000000
  0.4141630138193178  0.4141630138193178  0.0000000000000000
  0.7640968551451961  0.2640968551451960  0.5000000000000000
  0.2640968551451960  0.7640968551451961  0.5000000000000000
  0.9989919412297065  0.9989919412297065 -0.0000000000000000
 
  0.00000000E+00  0.00000000E+00  0.00000000E+00
  0.00000000E+00  0.00000000E+00  0.00000000E+00
  0.00000000E+00  0.00000000E+00  0.00000000E+00
  0.00000000E+00  0.00000000E+00  0.00000000E+00
  0.00000000E+00  0.00000000E+00  0.00000000E+00
