Al3Th1   [HEX,HEX,hP8] (STD_PRIM doi:10.
   1.00000000000000     
     3.2949423207939508   -5.7070075076240361    0.0000000000000000
     3.2951335462629170    5.7071179117000215    0.0000000000000000
     0.0000000000000000    0.0000000000000000    4.6433859988480464
   6   2
Direct
  0.7230312862387507  0.8615263722411015  0.2500000000000000
  0.1384950860023579  0.8615263722411015  0.2500000000000000
  0.1384744226550865  0.2769488453101800  0.2500000000000000
  0.2769687137612493  0.1384736277588985  0.7500000000000000
  0.8615049139976421  0.1384736277588985  0.7500000000000000
  0.8615255773449135  0.7230511546898200  0.7500000000000000
  0.6666764625416519  0.3333529250833038  0.2500000000000000
  0.3333235374583481  0.6666470749166962  0.7500000000000000
 
  0.00000000E+00  0.00000000E+00  0.00000000E+00
  0.00000000E+00  0.00000000E+00  0.00000000E+00
  0.00000000E+00  0.00000000E+00  0.00000000E+00
  0.00000000E+00  0.00000000E+00  0.00000000E+00
  0.00000000E+00  0.00000000E+00  0.00000000E+00
  0.00000000E+00  0.00000000E+00  0.00000000E+00
  0.00000000E+00  0.00000000E+00  0.00000000E+00
  0.00000000E+00  0.00000000E+00  0.00000000E+00
