As1Ni1S1   [CUB,CUB,cP12] (STD_PRIM doi:
   1.00000000000000     
     5.6844632034036948    0.0000000000000000   -0.0000000000000000
    -0.0000000000000000    5.6844632034036948    0.0000000000000000
     0.0000000000000000    0.0000000000000000    5.6844632034036948
   4   4   4
Direct
  0.3801896621711736  0.3801896621711736  0.3801896621711736
  0.1198103378288265  0.6198103378288264  0.8801896621711736
  0.6198103378288264  0.8801896621711736  0.1198103378288265
  0.8801896621711736  0.1198103378288265  0.6198103378288264
  0.0065799477008100  0.0065799477008100  0.0065799477008100
  0.4934200522991900  0.9934200522991898  0.5065799477008102
  0.9934200522991898  0.5065799477008102  0.4934200522991900
  0.5065799477008102  0.4934200522991899  0.9934200522991898
  0.6162096987412612  0.6162096987412612  0.6162096987412612
  0.8837903012587388  0.3837903012587388  0.1162096987412612
  0.3837903012587388  0.1162096987412612  0.8837903012587388
  0.1162096987412612  0.8837903012587388  0.3837903012587388
 
  0.00000000E+00  0.00000000E+00  0.00000000E+00
  0.00000000E+00  0.00000000E+00  0.00000000E+00
  0.00000000E+00  0.00000000E+00  0.00000000E+00
  0.00000000E+00  0.00000000E+00  0.00000000E+00
  0.00000000E+00  0.00000000E+00  0.00000000E+00
  0.00000000E+00  0.00000000E+00  0.00000000E+00
  0.00000000E+00  0.00000000E+00  0.00000000E+00
  0.00000000E+00  0.00000000E+00  0.00000000E+00
  0.00000000E+00  0.00000000E+00  0.00000000E+00
  0.00000000E+00  0.00000000E+00  0.00000000E+00
  0.00000000E+00  0.00000000E+00  0.00000000E+00
  0.00000000E+00  0.00000000E+00  0.00000000E+00
