Be3P2   [BCC,BCC,cI80] (STD_PRIM doi:10.
   1.00000000000000     
    -5.0982071782614247    5.0982071782614247    5.0982071782614247
     5.0982071782614247   -5.0982071782614247    5.0982071782614247
     5.0982071782614247    5.0982071782614247   -5.0982071782614247
  24  16
Direct
  0.2489201218836535  0.4957296576941526  0.0048919693726268
  0.2510798781163465  0.2559718474889733  0.2468095358104991
  0.9908376883215330  0.2440281525110267  0.4951080306273732
  0.5091623116784670  0.0042703423058474  0.2531904641895009
  0.9951080306273732  0.4908376883215330  0.2440281525110267
  0.7531904641895009  0.0091623116784671  0.0042703423058474
  0.5048919693726268  0.7489201218836535  0.4957296576941526
  0.7468095358104991  0.7510798781163465  0.2559718474889733
  0.7559718474889733  0.2468095358104991  0.7510798781163465
  0.9957296576941526  0.0048919693726268  0.7489201218836535
  0.5042703423058474  0.2531904641895009  0.0091623116784671
  0.7440281525110267  0.4951080306273732  0.4908376883215330
  0.7510798781163465  0.5042703423058474  0.9951080306273732
  0.7489201218836535  0.7440281525110267  0.7531904641895009
  0.0091623116784671  0.7559718474889733  0.5048919693726268
  0.4908376883215330  0.9957296576941526  0.7468095358104991
  0.0048919693726268  0.5091623116784670  0.7559718474889733
  0.2468095358104991  0.9908376883215330  0.9957296576941526
  0.4951080306273732  0.2510798781163465  0.5042703423058474
  0.2531904641895009  0.2489201218836535  0.7440281525110267
  0.2440281525110267  0.7531904641895009  0.2489201218836535
  0.0042703423058474  0.9951080306273732  0.2510798781163465
  0.4957296576941526  0.7468095358104991  0.9908376883215330
  0.2559718474889733  0.5048919693726268  0.5091623116784670
  0.0000000000000000  0.5000000000000000  0.0000000000000000
  0.5000000000000000  0.5000000000000000  0.5000000000000000
 -0.0000000000000000  0.0000000000000000  0.5000000000000000
  0.5000000000000000 -0.0000000000000000 -0.0000000000000000
  0.9942836591075001  0.7500000000000000  0.7442836591075001
  0.5057163408924999  0.2500000000000000  0.7557163408924999
  0.2557163408925000  0.0057163408925000  0.2500000000000000
  0.2442836591075000  0.4942836591075000  0.7500000000000000
  0.7500000000000000  0.7557163408924999  0.0057163408925000
  0.2500000000000000  0.7442836591075001  0.4942836591075000
  0.0057163408925000  0.2500000000000000  0.2557163408925000
  0.4942836591075000  0.7500000000000000  0.2442836591075000
  0.7442836591075001  0.9942836591075001  0.7500000000000000
  0.7557163408924999  0.5057163408924999  0.2500000000000000
  0.2500000000000000  0.2442836591075000  0.9942836591075001
  0.7500000000000000  0.2557163408925000  0.5057163408924999
 
  0.00000000E+00  0.00000000E+00  0.00000000E+00
  0.00000000E+00  0.00000000E+00  0.00000000E+00
  0.00000000E+00  0.00000000E+00  0.00000000E+00
  0.00000000E+00  0.00000000E+00  0.00000000E+00
  0.00000000E+00  0.00000000E+00  0.00000000E+00
  0.00000000E+00  0.00000000E+00  0.00000000E+00
  0.00000000E+00  0.00000000E+00  0.00000000E+00
  0.00000000E+00  0.00000000E+00  0.00000000E+00
  0.00000000E+00  0.00000000E+00  0.00000000E+00
  0.00000000E+00  0.00000000E+00  0.00000000E+00
  0.00000000E+00  0.00000000E+00  0.00000000E+00
  0.00000000E+00  0.00000000E+00  0.00000000E+00
  0.00000000E+00  0.00000000E+00  0.00000000E+00
  0.00000000E+00  0.00000000E+00  0.00000000E+00
  0.00000000E+00  0.00000000E+00  0.00000000E+00
  0.00000000E+00  0.00000000E+00  0.00000000E+00
  0.00000000E+00  0.00000000E+00  0.00000000E+00
  0.00000000E+00  0.00000000E+00  0.00000000E+00
  0.00000000E+00  0.00000000E+00  0.00000000E+00
  0.00000000E+00  0.00000000E+00  0.00000000E+00
  0.00000000E+00  0.00000000E+00  0.00000000E+00
  0.00000000E+00  0.00000000E+00  0.00000000E+00
  0.00000000E+00  0.00000000E+00  0.00000000E+00
  0.00000000E+00  0.00000000E+00  0.00000000E+00
  0.00000000E+00  0.00000000E+00  0.00000000E+00
  0.00000000E+00  0.00000000E+00  0.00000000E+00
  0.00000000E+00  0.00000000E+00  0.00000000E+00
  0.00000000E+00  0.00000000E+00  0.00000000E+00
  0.00000000E+00  0.00000000E+00  0.00000000E+00
  0.00000000E+00  0.00000000E+00  0.00000000E+00
  0.00000000E+00  0.00000000E+00  0.00000000E+00
  0.00000000E+00  0.00000000E+00  0.00000000E+00
  0.00000000E+00  0.00000000E+00  0.00000000E+00
  0.00000000E+00  0.00000000E+00  0.00000000E+00
  0.00000000E+00  0.00000000E+00  0.00000000E+00
  0.00000000E+00  0.00000000E+00  0.00000000E+00
  0.00000000E+00  0.00000000E+00  0.00000000E+00
  0.00000000E+00  0.00000000E+00  0.00000000E+00
  0.00000000E+00  0.00000000E+00  0.00000000E+00
  0.00000000E+00  0.00000000E+00  0.00000000E+00
