As4Pa3   [BCC,BCC,cI28] (STD_PRIM doi:10
   1.00000000000000     
    -4.2851460559254857    4.2851460559254857    4.2851460559254857
     4.2851460559254857   -4.2851460559254857    4.2851460559254857
     4.2851460559254857    4.2851460559254857   -4.2851460559254857
   8   6
Direct
 -0.0000000000000000  0.8412983544852586 -0.0000000000000000
  0.3412983544852586 -0.0000000000000000  0.5000000000000000
  0.1587016455147413  0.6587016455147414  0.6587016455147414
  0.5000000000000000  0.5000000000000000  0.8412983544852586
  0.0000000000000000  0.3412983544852586  0.0000000000000000
  0.8412983544852586  0.0000000000000000  0.5000000000000000
  0.5000000000000000  0.5000000000000000  0.3412983544852586
  0.6587016455147414  0.1587016455147413  0.1587016455147413
  0.7500000000000000  0.3750000000000000  0.6250000000000000
  0.2500000000000000  0.1250000000000000  0.8750000000000000
  0.3750000000000000  0.7500000000000000  0.1250000000000000
  0.1250000000000000  0.2500000000000000  0.3750000000000000
  0.8750000000000000  0.6250000000000000  0.2500000000000000
  0.6250000000000000  0.8750000000000000  0.7500000000000000
 
  0.00000000E+00  0.00000000E+00  0.00000000E+00
  0.00000000E+00  0.00000000E+00  0.00000000E+00
  0.00000000E+00  0.00000000E+00  0.00000000E+00
  0.00000000E+00  0.00000000E+00  0.00000000E+00
  0.00000000E+00  0.00000000E+00  0.00000000E+00
  0.00000000E+00  0.00000000E+00  0.00000000E+00
  0.00000000E+00  0.00000000E+00  0.00000000E+00
  0.00000000E+00  0.00000000E+00  0.00000000E+00
  0.00000000E+00  0.00000000E+00  0.00000000E+00
  0.00000000E+00  0.00000000E+00  0.00000000E+00
  0.00000000E+00  0.00000000E+00  0.00000000E+00
  0.00000000E+00  0.00000000E+00  0.00000000E+00
  0.00000000E+00  0.00000000E+00  0.00000000E+00
  0.00000000E+00  0.00000000E+00  0.00000000E+00
