Ba1Pd1   [ORCC,ORCC,oS8] (STD_PRIM doi:1
   1.00000000000000     
     2.2078074215647447   -5.9600478105991375    0.0000000000000000
     2.2078074215647447    5.9600478105991375   -0.0000000000000000
     0.0000000000000000    0.0000000000000000    4.7551883065473737
   2   2
Direct
  0.8630926583693733  0.1369073416306266  0.7500000000000000
  0.1369073416306266  0.8630926583693733  0.2500000000000000
  0.5734072161603969  0.4265927838396031  0.7500000000000000
  0.4265927838396031  0.5734072161603969  0.2500000000000000
 
  0.00000000E+00  0.00000000E+00  0.00000000E+00
  0.00000000E+00  0.00000000E+00  0.00000000E+00
  0.00000000E+00  0.00000000E+00  0.00000000E+00
  0.00000000E+00  0.00000000E+00  0.00000000E+00
