Bi2O3   [BCC,BCC,cI80] (STD_PRIM doi:10.
   1.00000000000000     
    -5.6140186944205794    5.6140186944205794    5.6140186944205794
     5.6140186944205794   -5.6140186944205794    5.6140186944205794
     5.6140186944205794    5.6140186944205794   -5.6140186944205794
  16  24
Direct
  0.0000000000000000  0.5000000000000000  0.0000000000000000
 -0.0000000000000000 -0.0000000000000000  0.5000000000000000
  0.5000000000000000  0.5000000000000000  0.5000000000000000
  0.5000000000000000  0.0000000000000000  0.0000000000000000
  0.7500000000000000  0.9737999959185727  0.7237999959185727
  0.2500000000000000  0.5262000040814273  0.7762000040814273
  0.9737999959185727  0.2237999959185727  0.2500000000000000
  0.5262000040814273  0.2762000040814273  0.7500000000000000
  0.2762000040814273  0.2500000000000000  0.0262000040814273
  0.2237999959185727  0.7500000000000000  0.4737999959185727
  0.2500000000000000  0.0262000040814273  0.2762000040814273
  0.7500000000000000  0.4737999959185727  0.2237999959185727
  0.0262000040814273  0.7762000040814273  0.7500000000000000
  0.4737999959185727  0.7237999959185727  0.2500000000000000
  0.7237999959185727  0.7500000000000000  0.9737999959185727
  0.7762000040814273  0.2500000000000000  0.5262000040814273
  0.9493525975998680  0.7256223162029042  0.4675639405448985
  0.2419416243419872  0.7743776837970958  0.2237302813969567
  0.2580583756580128  0.9817886570549765  0.0324360594551015
  0.5506474024001320  0.5182113429450235  0.2762697186030433
  0.5182113429450235  0.7762697186030433  0.0506474024001320
  0.9817886570549765  0.5324360594551014  0.7580583756580128
  0.7743776837970958  0.7237302813969567  0.7419416243419872
  0.7256223162029042  0.9675639405448986  0.4493525975998680
  0.5324360594551014  0.2580583756580128  0.4817886570549766
  0.7762697186030433  0.5506474024001320  0.0182113429450234
  0.9675639405448986  0.9493525975998680  0.2256223162029042
  0.7237302813969567  0.2419416243419872  0.2743776837970958
  0.0506474024001320  0.2743776837970958  0.5324360594551014
  0.7580583756580128  0.2256223162029042  0.7762697186030433
  0.7419416243419872  0.0182113429450234  0.9675639405448986
  0.4493525975998680  0.4817886570549766  0.7237302813969567
  0.4817886570549766  0.2237302813969567  0.9493525975998680
  0.0182113429450234  0.4675639405448985  0.2419416243419872
  0.2256223162029042  0.2762697186030433  0.2580583756580128
  0.2743776837970958  0.0324360594551015  0.5506474024001320
  0.4675639405448985  0.7419416243419872  0.5182113429450235
  0.2237302813969567  0.4493525975998680  0.9817886570549765
  0.0324360594551015  0.0506474024001320  0.7743776837970958
  0.2762697186030433  0.7580583756580128  0.7256223162029042
 
  0.00000000E+00  0.00000000E+00  0.00000000E+00
  0.00000000E+00  0.00000000E+00  0.00000000E+00
  0.00000000E+00  0.00000000E+00  0.00000000E+00
  0.00000000E+00  0.00000000E+00  0.00000000E+00
  0.00000000E+00  0.00000000E+00  0.00000000E+00
  0.00000000E+00  0.00000000E+00  0.00000000E+00
  0.00000000E+00  0.00000000E+00  0.00000000E+00
  0.00000000E+00  0.00000000E+00  0.00000000E+00
  0.00000000E+00  0.00000000E+00  0.00000000E+00
  0.00000000E+00  0.00000000E+00  0.00000000E+00
  0.00000000E+00  0.00000000E+00  0.00000000E+00
  0.00000000E+00  0.00000000E+00  0.00000000E+00
  0.00000000E+00  0.00000000E+00  0.00000000E+00
  0.00000000E+00  0.00000000E+00  0.00000000E+00
  0.00000000E+00  0.00000000E+00  0.00000000E+00
  0.00000000E+00  0.00000000E+00  0.00000000E+00
  0.00000000E+00  0.00000000E+00  0.00000000E+00
  0.00000000E+00  0.00000000E+00  0.00000000E+00
  0.00000000E+00  0.00000000E+00  0.00000000E+00
  0.00000000E+00  0.00000000E+00  0.00000000E+00
  0.00000000E+00  0.00000000E+00  0.00000000E+00
  0.00000000E+00  0.00000000E+00  0.00000000E+00
  0.00000000E+00  0.00000000E+00  0.00000000E+00
  0.00000000E+00  0.00000000E+00  0.00000000E+00
  0.00000000E+00  0.00000000E+00  0.00000000E+00
  0.00000000E+00  0.00000000E+00  0.00000000E+00
  0.00000000E+00  0.00000000E+00  0.00000000E+00
  0.00000000E+00  0.00000000E+00  0.00000000E+00
  0.00000000E+00  0.00000000E+00  0.00000000E+00
  0.00000000E+00  0.00000000E+00  0.00000000E+00
  0.00000000E+00  0.00000000E+00  0.00000000E+00
  0.00000000E+00  0.00000000E+00  0.00000000E+00
  0.00000000E+00  0.00000000E+00  0.00000000E+00
  0.00000000E+00  0.00000000E+00  0.00000000E+00
  0.00000000E+00  0.00000000E+00  0.00000000E+00
  0.00000000E+00  0.00000000E+00  0.00000000E+00
  0.00000000E+00  0.00000000E+00  0.00000000E+00
  0.00000000E+00  0.00000000E+00  0.00000000E+00
  0.00000000E+00  0.00000000E+00  0.00000000E+00
  0.00000000E+00  0.00000000E+00  0.00000000E+00
