Rh1S2   [CUB,CUB,cP12] (STD_PRIM doi:10.
   1.00000000000000     
     5.7722209477476989    0.0000000000000000   -0.0000000000000000
     0.0000000000000000    5.7722209477476989    0.0000000000000000
    -0.0000000000000000    0.0000000000000000    5.7722209477476989
   4   8
Direct
  0.0000000000000000  0.0000000000000000  0.0000000000000000
  0.5000000000000000  0.0000000000000000  0.5000000000000000
  0.0000000000000000  0.5000000000000000  0.5000000000000000
  0.5000000000000000  0.5000000000000000  0.0000000000000000
  0.3925777142099001  0.3925777142099001  0.3925777142099001
  0.1074222857901000  0.6074222857901000  0.8925777142099000
  0.6074222857901000  0.8925777142099000  0.1074222857901000
  0.8925777142099000  0.1074222857901000  0.6074222857901000
  0.6074222857901000  0.6074222857901000  0.6074222857901000
  0.8925777142099000  0.3925777142099001  0.1074222857901000
  0.3925777142099001  0.1074222857901000  0.8925777142099000
  0.1074222857901000  0.8925777142099000  0.3925777142099001
 
  0.00000000E+00  0.00000000E+00  0.00000000E+00
  0.00000000E+00  0.00000000E+00  0.00000000E+00
  0.00000000E+00  0.00000000E+00  0.00000000E+00
  0.00000000E+00  0.00000000E+00  0.00000000E+00
  0.00000000E+00  0.00000000E+00  0.00000000E+00
  0.00000000E+00  0.00000000E+00  0.00000000E+00
  0.00000000E+00  0.00000000E+00  0.00000000E+00
  0.00000000E+00  0.00000000E+00  0.00000000E+00
  0.00000000E+00  0.00000000E+00  0.00000000E+00
  0.00000000E+00  0.00000000E+00  0.00000000E+00
  0.00000000E+00  0.00000000E+00  0.00000000E+00
  0.00000000E+00  0.00000000E+00  0.00000000E+00
