Br3Cs1Sn1   [CUB,CUB,cP5] (STD_PRIM doi:
   1.00000000000000     
     5.9225058752593895    0.0000000000000000    0.0000000000000000
     0.0000000000000000    5.9225058752593895    0.0000000000000000
     0.0000000000000000    0.0000000000000000    5.9225058752593895
   3   1   1
Direct
  0.0000000000000000  0.5000000000000000  0.5000000000000000
  0.5000000000000000  0.0000000000000000  0.5000000000000000
  0.5000000000000000  0.5000000000000000  0.0000000000000000
  0.0000000000000000  0.0000000000000000  0.0000000000000000
  0.5000000000000000  0.5000000000000000  0.5000000000000000
 
  0.00000000E+00  0.00000000E+00  0.00000000E+00
  0.00000000E+00  0.00000000E+00  0.00000000E+00
  0.00000000E+00  0.00000000E+00  0.00000000E+00
  0.00000000E+00  0.00000000E+00  0.00000000E+00
  0.00000000E+00  0.00000000E+00  0.00000000E+00
