Ge1Os1Sc1   [HEX,HEX,hP9] (STD_PRIM doi:
   1.00000000000000     
     3.5307942336770846   -6.1157671001591423    0.0000000000000000
     3.5307942336770846    6.1157671001591423    0.0000000000000000
     0.0000000000000000    0.0000000000000000    3.4754768261263473
   3   3   3
Direct
  0.3333258607949819  0.6666678437441218  0.0000000000000000
  0.6666678437441218  0.3333258607949819  0.0000000000000000
  0.0000064957335425  0.0000064957335425  0.5000000000000000
  0.2547090760285177 -0.0000107211511869  0.0000000000000000
 -0.0000107211511869  0.2547090760285177  0.0000000000000000
  0.7453015336149849  0.7453015336149849  0.0000000000000000
  0.5996555938588309  0.0000173598052299  0.5000000000000000
  0.0000173598052299  0.5996555938588309  0.5000000000000000
  0.4003269575709771  0.4003269575709771  0.5000000000000000
 
  0.00000000E+00  0.00000000E+00  0.00000000E+00
  0.00000000E+00  0.00000000E+00  0.00000000E+00
  0.00000000E+00  0.00000000E+00  0.00000000E+00
  0.00000000E+00  0.00000000E+00  0.00000000E+00
  0.00000000E+00  0.00000000E+00  0.00000000E+00
  0.00000000E+00  0.00000000E+00  0.00000000E+00
  0.00000000E+00  0.00000000E+00  0.00000000E+00
  0.00000000E+00  0.00000000E+00  0.00000000E+00
  0.00000000E+00  0.00000000E+00  0.00000000E+00
