Al2Mg1O4   [FCC,FCC,cF56] (STD_PRIM doi:
   1.22474500000000     
     0.0000000000000000    3.3347993395721240    3.3347993395721240
     3.3347993395721240    0.0000000000000000    3.3347993395721240
     3.3347993395721240    3.3347993395721240    0.0000000000000000
   4   2   8
Direct
  0.5000000000000000  0.5000000000000000  0.5000000000000000
  0.5000000000000000  0.0000000000000000  0.5000000000000000
  0.0000000000000000  0.0000000000000000  0.5000000000000000
  0.5000000000000000  0.0000000000000000  0.0000000000000000
  0.8750000000000000  0.3750000000000000  0.8750000000000000
  0.1250000000000000  0.6250000000000000  0.1250000000000000
  0.7363777088363506  0.7908668734909483  0.7363777088363506
  0.7363777088363506  0.2363777088363506  0.7363777088363506
  0.2908668734909483  0.2363777088363506  0.7363777088363506
  0.7363777088363506  0.2363777088363506  0.2908668734909483
  0.2636222911636494  0.7636222911636494  0.2636222911636494
  0.2636222911636494  0.2091331265090517  0.2636222911636494
  0.7091331265090517  0.7636222911636494  0.2636222911636494
  0.2636222911636494  0.7636222911636494  0.7091331265090517
 
  0.00000000E+00  0.00000000E+00  0.00000000E+00
  0.00000000E+00  0.00000000E+00  0.00000000E+00
  0.00000000E+00  0.00000000E+00  0.00000000E+00
  0.00000000E+00  0.00000000E+00  0.00000000E+00
  0.00000000E+00  0.00000000E+00  0.00000000E+00
  0.00000000E+00  0.00000000E+00  0.00000000E+00
  0.00000000E+00  0.00000000E+00  0.00000000E+00
  0.00000000E+00  0.00000000E+00  0.00000000E+00
  0.00000000E+00  0.00000000E+00  0.00000000E+00
  0.00000000E+00  0.00000000E+00  0.00000000E+00
  0.00000000E+00  0.00000000E+00  0.00000000E+00
  0.00000000E+00  0.00000000E+00  0.00000000E+00
  0.00000000E+00  0.00000000E+00  0.00000000E+00
  0.00000000E+00  0.00000000E+00  0.00000000E+00
