B2O3   [HEX,HEX,hP15] (STD_PRIM doi:10.1
   1.01639600000000     
     2.1689150770004075   -3.7566710671722183    0.0000000000000000
     2.1689150393329375    3.7566710889195432   -0.0000000000000000
     0.0000000000000000    0.0000000000000000    8.8083780062657162
   6   9
Direct
  0.9274864488566059  0.4516720410437062  0.0058885032258805
  0.5483279589563009  0.4758144078128997  0.3392218365591949
  0.5241855921871074  0.0725135511434012  0.6725551698925305
  0.1426110306184297  0.8815230570609659  0.2247840985461697
  0.1184769429390483  0.2610879735574638  0.5581174318794911
  0.7389120264425575  0.8573889693815774  0.8914507652128411
  0.9207916660230068  0.1372997210844370  0.9861592936760439
  0.8627002789155488  0.7834919449385485  0.3194926270093796
  0.2165080550614372  0.0792083339769932  0.6528259603427153
  0.8041498309702049  0.2544756685293356  0.5778723658781180
  0.7455243314706572  0.5496741624408693  0.9112056992114537
  0.4503258375591165  0.1958501690297809  0.2445390325447823
  0.1469719609954934  0.6666651584305138  0.1152957386737917
  0.3333348415695005  0.4803068025650010  0.4486290720071273
  0.5196931974349919  0.8530280390045066  0.7819624053404772
 
  0.00000000E+00  0.00000000E+00  0.00000000E+00
  0.00000000E+00  0.00000000E+00  0.00000000E+00
  0.00000000E+00  0.00000000E+00  0.00000000E+00
  0.00000000E+00  0.00000000E+00  0.00000000E+00
  0.00000000E+00  0.00000000E+00  0.00000000E+00
  0.00000000E+00  0.00000000E+00  0.00000000E+00
  0.00000000E+00  0.00000000E+00  0.00000000E+00
  0.00000000E+00  0.00000000E+00  0.00000000E+00
  0.00000000E+00  0.00000000E+00  0.00000000E+00
  0.00000000E+00  0.00000000E+00  0.00000000E+00
  0.00000000E+00  0.00000000E+00  0.00000000E+00
  0.00000000E+00  0.00000000E+00  0.00000000E+00
  0.00000000E+00  0.00000000E+00  0.00000000E+00
  0.00000000E+00  0.00000000E+00  0.00000000E+00
  0.00000000E+00  0.00000000E+00  0.00000000E+00
