P1V1Zr1   [ORC,ORC,oP12] (STD_PRIM doi:1
   1.00000000000000     
     3.5344664909825854   -0.0000000000000000    0.0000000000000000
     0.0000000000000000    6.6413358123204738    0.0000000000000000
     0.0000000000000000    0.0000000000000000    7.9540460866853326
   4   4   4
Direct
  0.2500000000000000  0.7588309574406912  0.3626413267121898
  0.7500000000000000  0.7411690425593088  0.8626413267121898
  0.7500000000000000  0.2411690425593088  0.6373586732878102
  0.2500000000000000  0.2588309574406912  0.1373586732878102
  0.2500000000000000  0.1289189605732003  0.4431375953410357
  0.7500000000000000  0.3710810394267998  0.9431375953410357
  0.7500000000000000  0.8710810394267998  0.5568624046589643
  0.2500000000000000  0.6289189605732002  0.0568624046589643
  0.2500000000000000  0.0431726923754339  0.8314259858549895
  0.7500000000000000  0.4568273076245661  0.3314259858549896
  0.7500000000000000  0.9568273076245661  0.1685740141450105
  0.2500000000000000  0.5431726923754339  0.6685740141450105
 
  0.00000000E+00  0.00000000E+00  0.00000000E+00
  0.00000000E+00  0.00000000E+00  0.00000000E+00
  0.00000000E+00  0.00000000E+00  0.00000000E+00
  0.00000000E+00  0.00000000E+00  0.00000000E+00
  0.00000000E+00  0.00000000E+00  0.00000000E+00
  0.00000000E+00  0.00000000E+00  0.00000000E+00
  0.00000000E+00  0.00000000E+00  0.00000000E+00
  0.00000000E+00  0.00000000E+00  0.00000000E+00
  0.00000000E+00  0.00000000E+00  0.00000000E+00
  0.00000000E+00  0.00000000E+00  0.00000000E+00
  0.00000000E+00  0.00000000E+00  0.00000000E+00
  0.00000000E+00  0.00000000E+00  0.00000000E+00
