Au2Ga2Sr1   [TET,TET,tP10] (STD_PRIM doi
   1.00000000000000     
     4.5409536370022217   -0.0000000000000000    0.0000000000000000
     0.0000000000000000    4.5409536370022217    0.0000000000000000
     0.0000000000000000   -0.0000000000000000   10.7025023732380511
   4   4   2
Direct
  0.7500000000000000  0.2500000000000000  0.0000000000000000
  0.2500000000000000  0.7500000000000000 -0.0000000000000000
  0.2500000000000000  0.2500000000000000  0.6312036718763635
  0.7500000000000000  0.7500000000000000  0.3687963281236366
  0.7500000000000000  0.2500000000000000  0.5000000000000000
  0.2500000000000000  0.7500000000000000  0.5000000000000000
  0.2500000000000000  0.2500000000000000  0.8739432845743687
  0.7500000000000000  0.7500000000000000  0.1260567154256314
  0.2500000000000000  0.2500000000000000  0.2492010063319776
  0.7500000000000000  0.7500000000000000  0.7507989936680224
 
  0.00000000E+00  0.00000000E+00  0.00000000E+00
  0.00000000E+00  0.00000000E+00  0.00000000E+00
  0.00000000E+00  0.00000000E+00  0.00000000E+00
  0.00000000E+00  0.00000000E+00  0.00000000E+00
  0.00000000E+00  0.00000000E+00  0.00000000E+00
  0.00000000E+00  0.00000000E+00  0.00000000E+00
  0.00000000E+00  0.00000000E+00  0.00000000E+00
  0.00000000E+00  0.00000000E+00  0.00000000E+00
  0.00000000E+00  0.00000000E+00  0.00000000E+00
  0.00000000E+00  0.00000000E+00  0.00000000E+00
