N1Ta1   [HEX,HEX,hP2] (STD_PRIM doi:10.1
   1.00000000000000     
     1.4853475898079964   -2.5726974924474266    0.0000000000000000
     1.4853581826051494    2.5727036082017136    0.0000000000000000
     0.0000000000000000    0.0000000000000000    2.9182300367263450
   1   1
Direct
  0.0000121438392005  0.0000242876784009  0.0000000000000000
  0.6666878561607983  0.3333757123215966  0.5000000000000000
 
  0.00000000E+00  0.00000000E+00  0.00000000E+00
  0.00000000E+00  0.00000000E+00  0.00000000E+00
