Mg1Te2   [CUB,CUB,cP12] (STD_PRIM doi:10
   1.00000000000000     
     7.1084230066225453   -0.0000000000000000    0.0000000000000000
     0.0000000000000000    7.1084230066225453    0.0000000000000000
     0.0000000000000000    0.0000000000000000    7.1084230066225453
   4   8
Direct
  0.0000000000000000  0.0000000000000000  0.0000000000000000
  0.5000000000000000  0.0000000000000000  0.5000000000000000
  0.0000000000000000  0.5000000000000000  0.5000000000000000
  0.5000000000000000  0.5000000000000000  0.0000000000000000
  0.3866838198110507  0.3866838198110507  0.3866838198110507
  0.1133161801889493  0.6133161801889494  0.8866838198110506
  0.6133161801889494  0.8866838198110506  0.1133161801889493
  0.8866838198110506  0.1133161801889493  0.6133161801889494
  0.6133161801889494  0.6133161801889494  0.6133161801889494
  0.8866838198110506  0.3866838198110507  0.1133161801889493
  0.3866838198110507  0.1133161801889493  0.8866838198110506
  0.1133161801889493  0.8866838198110506  0.3866838198110507
 
  0.00000000E+00  0.00000000E+00  0.00000000E+00
  0.00000000E+00  0.00000000E+00  0.00000000E+00
  0.00000000E+00  0.00000000E+00  0.00000000E+00
  0.00000000E+00  0.00000000E+00  0.00000000E+00
  0.00000000E+00  0.00000000E+00  0.00000000E+00
  0.00000000E+00  0.00000000E+00  0.00000000E+00
  0.00000000E+00  0.00000000E+00  0.00000000E+00
  0.00000000E+00  0.00000000E+00  0.00000000E+00
  0.00000000E+00  0.00000000E+00  0.00000000E+00
  0.00000000E+00  0.00000000E+00  0.00000000E+00
  0.00000000E+00  0.00000000E+00  0.00000000E+00
  0.00000000E+00  0.00000000E+00  0.00000000E+00
