Ir3Si1   [BCT,BCT2,tI16] (STD_PRIM doi:1
   1.00000000000000     
    -2.6164144727822918    2.6164144727822918    4.0025599980013808
     2.6164144727822918   -2.6164144727822918    4.0025599980013808
     2.6164144727822918    2.6164144727822918   -4.0025599980013808
   6   2
Direct
  0.2500000000000000  0.2500000000000000  0.0000000000000000
  0.7500000000000000  0.7500000000000000  0.0000000000000000
  0.6834445999419074  0.1834445999419074  0.8668891998838077
  0.3165554000580926  0.8165554000580926  0.1331108001161923
  0.1834445999419074  0.3165554000580926  0.5000000000000000
  0.8165554000580926  0.6834445999419074  0.5000000000000000
  0.7500000000000000  0.2500000000000000  0.5000000000000000
  0.2500000000000000  0.7500000000000000  0.5000000000000000
 
  0.00000000E+00  0.00000000E+00  0.00000000E+00
  0.00000000E+00  0.00000000E+00  0.00000000E+00
  0.00000000E+00  0.00000000E+00  0.00000000E+00
  0.00000000E+00  0.00000000E+00  0.00000000E+00
  0.00000000E+00  0.00000000E+00  0.00000000E+00
  0.00000000E+00  0.00000000E+00  0.00000000E+00
  0.00000000E+00  0.00000000E+00  0.00000000E+00
  0.00000000E+00  0.00000000E+00  0.00000000E+00
