Dy2Rh3Sn5   [ORCC,ORCC,oS40] (STD_PRIM d
   1.00000000000000     
     2.2295844628506307  -13.4136653144503555    0.0000000000000000
     2.2295844628506307   13.4136653144503555    0.0000000000000000
     0.0000000000000000    0.0000000000000000    7.2695890446274110
   4   6  10
Direct
  0.1708880036231654  0.8291119963768345  0.2402866439020239
  0.8291119963768345  0.1708880036231654  0.7402866439020238
  0.4748411349760529  0.5251588650239470  0.2640858285257935
  0.5251588650239470  0.4748411349760529  0.7640858285257935
  0.0496393499676584  0.9503606500323415  0.4857916103502221
  0.9503606500323415  0.0496393499676584  0.9857916103502220
  0.7784638311741345  0.2215361688258655  0.2360658783453089
  0.2215361688258655  0.7784638311741345  0.7360658783453090
  0.3944782767619596  0.6055217232380403  0.5161163806252503
  0.6055217232380403  0.3944782767619596  0.0161163806252503
  0.8799816979112152  0.1200183020887848  0.2658824682377324
  0.1200183020887848  0.8799816979112152  0.7658824682377324
  0.7047229077949114  0.2952770922050885  0.9527170391861934
  0.2952770922050885  0.7047229077949114  0.4527170391861934
  0.5960780726874249  0.4039219273125751  0.3891275148086500
  0.4039219273125751  0.5960780726874249  0.8891275148086500
  0.9531470118014964  0.0468529881985036  0.6015938453556275
  0.0468529881985036  0.9531470118014964  0.1015938453556276
  0.2904928583293466  0.7095071416706533  0.0203327906632064
  0.7095071416706533  0.2904928583293466  0.5203327906632064
 
  0.00000000E+00  0.00000000E+00  0.00000000E+00
  0.00000000E+00  0.00000000E+00  0.00000000E+00
  0.00000000E+00  0.00000000E+00  0.00000000E+00
  0.00000000E+00  0.00000000E+00  0.00000000E+00
  0.00000000E+00  0.00000000E+00  0.00000000E+00
  0.00000000E+00  0.00000000E+00  0.00000000E+00
  0.00000000E+00  0.00000000E+00  0.00000000E+00
  0.00000000E+00  0.00000000E+00  0.00000000E+00
  0.00000000E+00  0.00000000E+00  0.00000000E+00
  0.00000000E+00  0.00000000E+00  0.00000000E+00
  0.00000000E+00  0.00000000E+00  0.00000000E+00
  0.00000000E+00  0.00000000E+00  0.00000000E+00
  0.00000000E+00  0.00000000E+00  0.00000000E+00
  0.00000000E+00  0.00000000E+00  0.00000000E+00
  0.00000000E+00  0.00000000E+00  0.00000000E+00
  0.00000000E+00  0.00000000E+00  0.00000000E+00
  0.00000000E+00  0.00000000E+00  0.00000000E+00
  0.00000000E+00  0.00000000E+00  0.00000000E+00
  0.00000000E+00  0.00000000E+00  0.00000000E+00
  0.00000000E+00  0.00000000E+00  0.00000000E+00
