Er3Ru2   [HEX,HEX,hP10] (STD_PRIM doi:10
   1.00000000000000     
     3.7535429903351050   -6.5013542255527224    0.0000000000000000
     3.7535272016683470    6.5013443324946643    0.0000000000000000
     0.0000000000000000    0.0000000000000000    4.6941876275451806
   6   4
Direct
  0.3836961329255820  0.0782040531637948  0.2500000000000000
  0.9217971789262158  0.3054965311587461  0.2500000000000000
  0.6945031369563498  0.6162982579451263  0.2500000000000000
  0.6163038670744180  0.9217959468362052  0.7500000000000000
  0.0782028210737841  0.6945034688412538  0.7500000000000000
  0.3054968630436501  0.3837017420548736  0.7500000000000000
  0.0000000000000000 -0.0000000000000000  0.0000000000000000
  0.0000000000000000 -0.0000000000000000  0.5000000000000000
  0.3333352878447935  0.6666691965810140  0.2500000000000000
  0.6666647121552063  0.3333308034189861  0.7500000000000000
 
  0.00000000E+00  0.00000000E+00  0.00000000E+00
  0.00000000E+00  0.00000000E+00  0.00000000E+00
  0.00000000E+00  0.00000000E+00  0.00000000E+00
  0.00000000E+00  0.00000000E+00  0.00000000E+00
  0.00000000E+00  0.00000000E+00  0.00000000E+00
  0.00000000E+00  0.00000000E+00  0.00000000E+00
  0.00000000E+00  0.00000000E+00  0.00000000E+00
  0.00000000E+00  0.00000000E+00  0.00000000E+00
  0.00000000E+00  0.00000000E+00  0.00000000E+00
  0.00000000E+00  0.00000000E+00  0.00000000E+00
