Mg4P6Rh7   [BCC,BCC,cI34] (STD_PRIM doi:
   1.00000000000000     
    -3.9375398325033366    3.9375398325033366    3.9375398325033366
     3.9375398325033366   -3.9375398325033366    3.9375398325033366
     3.9375398325033366    3.9375398325033366   -3.9375398325033366
   4   6   7
Direct
  0.0000000000000000  0.5000000000000000  0.0000000000000000
  0.5000000000000000  0.0000000000000000  0.0000000000000000
  0.5000000000000000  0.5000000000000000  0.5000000000000000
  0.0000000000000000  0.0000000000000000  0.5000000000000000
  0.0000000000000000  0.6809651476815333  0.6809651476815333
  0.0000000000000000  0.3190348523184667  0.3190348523184667
  0.3190348523184667  0.0000000000000000  0.3190348523184667
  0.6809651476815333  0.0000000000000000  0.6809651476815333
  0.6809651476815333  0.6809651476815333  0.0000000000000000
  0.3190348523184667  0.3190348523184667  0.0000000000000000
  0.5000000000000000  0.2500000000000000  0.7500000000000000
  0.5000000000000000  0.7500000000000000  0.2500000000000000
  0.2500000000000000  0.5000000000000000  0.7500000000000000
  0.7500000000000000  0.5000000000000000  0.2500000000000000
  0.2500000000000000  0.7500000000000000  0.5000000000000000
  0.7500000000000000  0.2500000000000000  0.5000000000000000
  0.0000000000000000  0.0000000000000000  0.0000000000000000
 
  0.00000000E+00  0.00000000E+00  0.00000000E+00
  0.00000000E+00  0.00000000E+00  0.00000000E+00
  0.00000000E+00  0.00000000E+00  0.00000000E+00
  0.00000000E+00  0.00000000E+00  0.00000000E+00
  0.00000000E+00  0.00000000E+00  0.00000000E+00
  0.00000000E+00  0.00000000E+00  0.00000000E+00
  0.00000000E+00  0.00000000E+00  0.00000000E+00
  0.00000000E+00  0.00000000E+00  0.00000000E+00
  0.00000000E+00  0.00000000E+00  0.00000000E+00
  0.00000000E+00  0.00000000E+00  0.00000000E+00
  0.00000000E+00  0.00000000E+00  0.00000000E+00
  0.00000000E+00  0.00000000E+00  0.00000000E+00
  0.00000000E+00  0.00000000E+00  0.00000000E+00
  0.00000000E+00  0.00000000E+00  0.00000000E+00
  0.00000000E+00  0.00000000E+00  0.00000000E+00
  0.00000000E+00  0.00000000E+00  0.00000000E+00
  0.00000000E+00  0.00000000E+00  0.00000000E+00
