O2Rb1 #139 - (O2Rb1_ICSD_180564) - O2Rb1
    1.000000000000000     
    -2.0959247500999210    2.0959247500999210    3.5215756439615902
     2.0959247500999210   -2.0959247500999210    3.5215756439615902
     2.0959247500999210    2.0959247500999210   -3.5215756439615902
   2   1
Direct
  0.5960713186347742  0.5960713186347742  0.0000000000000000
  0.4039286813652257  0.4039286813652257  0.0000000000000000
  0.0000000000000000  0.0000000000000000  0.0000000000000000
 
  0.00000000E+00  0.00000000E+00  0.00000000E+00
  0.00000000E+00  0.00000000E+00  0.00000000E+00
  0.00000000E+00  0.00000000E+00  0.00000000E+00
