Al3Hf5N1 #193 - (Al3Hf5N1_ICSD_603995) -
    1.000000000000000     
     4.0476977444559914   -7.0108264141987169    0.0000000000000000
     4.0476977444559914    7.0108264141987169    0.0000000000000000
     0.0000000000000000    0.0000000000000000    5.6578020998034262
   6  10   2
Direct
  0.5965540149694261  0.9999997000603914  0.2500000000000000
  0.9999997000603914  0.5965540149694261  0.2500000000000000
  0.4034510707194189  0.4034510707194189  0.2500000000000000
  0.4034459850305740  0.0000002999396086  0.7500000000000000
  0.0000002999396086  0.4034459850305740  0.7500000000000000
  0.5965489292805811  0.5965489292805811  0.7500000000000000
  0.3333320152124192  0.6666679847875807  0.0000000000000000
  0.6666679847875807  0.3333320152124192  0.5000000000000000
  0.6666679847875807  0.3333320152124192  0.0000000000000000
  0.3333320152124192  0.6666679847875807  0.5000000000000000
  0.2243564401023967  0.0000017026847591  0.2500000000000000
  0.0000017026847591  0.2243564401023967  0.2500000000000000
  0.7756459202793584  0.7756459202793584  0.2500000000000000
  0.7756435598976033  0.9999982973152409  0.7500000000000000
  0.9999982973152409  0.7756435598976033  0.7500000000000000
  0.2243540797206415  0.2243540797206415  0.7500000000000000
  0.0000000000000000  0.0000000000000000  0.0000000000000000
  0.0000000000000000  0.0000000000000000  0.5000000000000000
 
  0.00000000E+00  0.00000000E+00  0.00000000E+00
  0.00000000E+00  0.00000000E+00  0.00000000E+00
  0.00000000E+00  0.00000000E+00  0.00000000E+00
  0.00000000E+00  0.00000000E+00  0.00000000E+00
  0.00000000E+00  0.00000000E+00  0.00000000E+00
  0.00000000E+00  0.00000000E+00  0.00000000E+00
  0.00000000E+00  0.00000000E+00  0.00000000E+00
  0.00000000E+00  0.00000000E+00  0.00000000E+00
  0.00000000E+00  0.00000000E+00  0.00000000E+00
  0.00000000E+00  0.00000000E+00  0.00000000E+00
  0.00000000E+00  0.00000000E+00  0.00000000E+00
  0.00000000E+00  0.00000000E+00  0.00000000E+00
  0.00000000E+00  0.00000000E+00  0.00000000E+00
  0.00000000E+00  0.00000000E+00  0.00000000E+00
  0.00000000E+00  0.00000000E+00  0.00000000E+00
  0.00000000E+00  0.00000000E+00  0.00000000E+00
  0.00000000E+00  0.00000000E+00  0.00000000E+00
  0.00000000E+00  0.00000000E+00  0.00000000E+00
