Ni3S4   [FCC,FCC,cF56] (STD_PRIM doi:10.
   1.22474500000000     
     0.0000000000000000    3.8451642691090604    3.8451642691090604
     3.8451642691090604    0.0000000000000000    3.8451642691090604
     3.8451642691090604    3.8451642691090604    0.0000000000000000
   6   8
Direct
  0.0000000000000000 -0.0000000000000000  0.0000000000000000
  0.7500000000000000  0.7500000000000000  0.7500000000000000
  0.3750000000000000  0.8750000000000000  0.3750000000000000
  0.8750000000000000  0.3750000000000000  0.3750000000000000
  0.3750000000000000  0.3750000000000000  0.8750000000000000
  0.3750000000000000  0.3750000000000000  0.3750000000000000
  0.1334147090681711  0.5997558727954724  0.1334147090681711
  0.5997558727954724  0.1334147090681711  0.1334147090681711
  0.1334147090681711  0.1334147090681711  0.5997558727954724
  0.1334147090681711  0.1334147090681711  0.1334147090681711
  0.1502441272045276  0.6165852909318289  0.6165852909318289
  0.6165852909318289  0.1502441272045276  0.6165852909318289
  0.6165852909318289  0.6165852909318289  0.1502441272045276
  0.6165852909318289  0.6165852909318289  0.6165852909318289
 
  0.00000000E+00  0.00000000E+00  0.00000000E+00
  0.00000000E+00  0.00000000E+00  0.00000000E+00
  0.00000000E+00  0.00000000E+00  0.00000000E+00
  0.00000000E+00  0.00000000E+00  0.00000000E+00
  0.00000000E+00  0.00000000E+00  0.00000000E+00
  0.00000000E+00  0.00000000E+00  0.00000000E+00
  0.00000000E+00  0.00000000E+00  0.00000000E+00
  0.00000000E+00  0.00000000E+00  0.00000000E+00
  0.00000000E+00  0.00000000E+00  0.00000000E+00
  0.00000000E+00  0.00000000E+00  0.00000000E+00
  0.00000000E+00  0.00000000E+00  0.00000000E+00
  0.00000000E+00  0.00000000E+00  0.00000000E+00
  0.00000000E+00  0.00000000E+00  0.00000000E+00
  0.00000000E+00  0.00000000E+00  0.00000000E+00
