Cu1Sb1Sr1   [HEX,HEX,hP6] (STD_PRIM doi:
   1.00000000000000     
     2.2828537092261341   -3.9541005090566363    0.0000000000000000
     2.2828537092261341    3.9541005090566363   -0.0000000000000000
     0.0000000000000000    0.0000000000000000    8.8187195786862986
   2   2   2
Direct
  0.3333487622647770  0.6666512377352229  0.7500000000000000
  0.6666512377352229  0.3333487622647770  0.2500000000000000
  0.3333309415083382  0.6666690584916618  0.2500000000000000
  0.6666690584916618  0.3333309415083382  0.7500000000000000
 -0.0000000000000000 -0.0000000000000000  0.0000000000000000
  0.0000000000000000 -0.0000000000000000  0.5000000000000000
 
  0.00000000E+00  0.00000000E+00  0.00000000E+00
  0.00000000E+00  0.00000000E+00  0.00000000E+00
  0.00000000E+00  0.00000000E+00  0.00000000E+00
  0.00000000E+00  0.00000000E+00  0.00000000E+00
  0.00000000E+00  0.00000000E+00  0.00000000E+00
  0.00000000E+00  0.00000000E+00  0.00000000E+00
