In1Pt1Th1   [HEX,HEX,hP9] (STD_PRIM doi:
   1.00000000000000     
     3.8465942554176449   -6.6624835427207802    0.0000000000000000
     3.8465942554176449    6.6624835427207802    0.0000000000000000
     0.0000000000000000    0.0000000000000000    4.2505102113613900
   3   3   3
Direct
  0.2466846318950303  0.0000081898447821  0.0000000000000000
  0.0000081898447821  0.2466846318950303  0.0000000000000000
  0.7533094889392423  0.7533094889392423  0.0000000000000000
  0.3333228499614286  0.6666743804164739  0.0000000000000000
  0.6666743804164739  0.3333228499614286  0.0000000000000000
  0.9999991856934277  0.9999991856934277  0.5000000000000000
  0.5891634144282536  0.9999991127984542  0.5000000000000000
  0.9999991127984542  0.5891634144282536  0.5000000000000000
  0.4108387460229142  0.4108387460229142  0.5000000000000000
 
  0.00000000E+00  0.00000000E+00  0.00000000E+00
  0.00000000E+00  0.00000000E+00  0.00000000E+00
  0.00000000E+00  0.00000000E+00  0.00000000E+00
  0.00000000E+00  0.00000000E+00  0.00000000E+00
  0.00000000E+00  0.00000000E+00  0.00000000E+00
  0.00000000E+00  0.00000000E+00  0.00000000E+00
  0.00000000E+00  0.00000000E+00  0.00000000E+00
  0.00000000E+00  0.00000000E+00  0.00000000E+00
  0.00000000E+00  0.00000000E+00  0.00000000E+00
