As2Ca1Pd2   [BCT,BCT2,tI10] (STD_PRIM do
   1.00000000000000     
    -2.1673519910901717    2.1673519910901717    5.1330233096205582
     2.1673519910901717   -2.1673519910901717    5.1330233096205582
     2.1673519910901717    2.1673519910901717   -5.1330233096205582
   2   1   2
Direct
  0.6198994683955534  0.6198994683955534 -0.0000000000000000
  0.3801005316044466  0.3801005316044466 -0.0000000000000000
 -0.0000000000000000  0.0000000000000000 -0.0000000000000000
  0.7500000000000000  0.2500000000000000  0.5000000000000000
  0.2500000000000000  0.7500000000000000  0.5000000000000000
 
  0.00000000E+00  0.00000000E+00  0.00000000E+00
  0.00000000E+00  0.00000000E+00  0.00000000E+00
  0.00000000E+00  0.00000000E+00  0.00000000E+00
  0.00000000E+00  0.00000000E+00  0.00000000E+00
  0.00000000E+00  0.00000000E+00  0.00000000E+00
