Au2Bi1Dy5   [BCT,BCT2,tI32] (STD_PRIM do
   1.00000000000000     
    -4.0648637382104980    4.0648637382104980    6.5599084369475111
     4.0648637382104980   -4.0648637382104980    6.5599084369475111
     4.0648637382104980    4.0648637382104980   -6.5599084369475111
   4   2  10
Direct
  0.1388506371110049  0.3611493628889951  0.5000000000000000
  0.8611493628889951  0.6388506371110049  0.5000000000000000
  0.6388506371110049  0.1388506371110049  0.7777012742220240
  0.3611493628889951  0.8611493628889951  0.2222987257779760
  0.7500000000000000  0.7500000000000000 -0.0000000000000000
  0.2500000000000000  0.2500000000000000  0.0000000000000000
 -0.0000000000000000 -0.0000000000000000  0.0000000000000000
  0.5000000000000000  0.5000000000000000 -0.0000000000000000
  0.5095266312751257  0.7045135687501927  0.5000000000000000
  0.2045135687501926  0.0095266312751256  0.5000000000000000
  0.0095266312751256  0.5095266312751257  0.8050130625249331
  0.7045135687501927  0.2045135687501926  0.1949869374750669
  0.2954864312498074  0.7954864312498073  0.8050130625249331
  0.9904733687248743  0.4904733687248743  0.1949869374750669
  0.7954864312498073  0.9904733687248743  0.5000000000000000
  0.4904733687248743  0.2954864312498074  0.5000000000000000
 
  0.00000000E+00  0.00000000E+00  0.00000000E+00
  0.00000000E+00  0.00000000E+00  0.00000000E+00
  0.00000000E+00  0.00000000E+00  0.00000000E+00
  0.00000000E+00  0.00000000E+00  0.00000000E+00
  0.00000000E+00  0.00000000E+00  0.00000000E+00
  0.00000000E+00  0.00000000E+00  0.00000000E+00
  0.00000000E+00  0.00000000E+00  0.00000000E+00
  0.00000000E+00  0.00000000E+00  0.00000000E+00
  0.00000000E+00  0.00000000E+00  0.00000000E+00
  0.00000000E+00  0.00000000E+00  0.00000000E+00
  0.00000000E+00  0.00000000E+00  0.00000000E+00
  0.00000000E+00  0.00000000E+00  0.00000000E+00
  0.00000000E+00  0.00000000E+00  0.00000000E+00
  0.00000000E+00  0.00000000E+00  0.00000000E+00
  0.00000000E+00  0.00000000E+00  0.00000000E+00
  0.00000000E+00  0.00000000E+00  0.00000000E+00
