Cu2Ge2Tb1   [BCT,BCT2,tI10] (STD_PRIM do
   1.00000000000000     
    -2.0309649837800907    2.0309649837800907    5.1885929555416892
     2.0309649837800907   -2.0309649837800907    5.1885929555416892
     2.0309649837800907    2.0309649837800907   -5.1885929555416892
   2   2   1
Direct
  0.7500000000000000  0.2500000000000000  0.5000000000000000
  0.2500000000000000  0.7500000000000000  0.5000000000000000
  0.6189837932281652  0.6189837932281652  0.0000000000000000
  0.3810162067718348  0.3810162067718348 -0.0000000000000000
  0.0000000000000000  0.0000000000000000  0.0000000000000000
 
  0.00000000E+00  0.00000000E+00  0.00000000E+00
  0.00000000E+00  0.00000000E+00  0.00000000E+00
  0.00000000E+00  0.00000000E+00  0.00000000E+00
  0.00000000E+00  0.00000000E+00  0.00000000E+00
  0.00000000E+00  0.00000000E+00  0.00000000E+00
