Si1Sr1Zn1   [HEX,HEX,hP6] (STD_PRIM doi:
   1.00000000000000     
     2.1581082085618837   -3.7379530654606383    0.0000000000000000
     2.1580253004965346    3.7379051984667915    0.0000000000000000
     0.0000000000000000    0.0000000000000000    8.9543019394802759
   2   2   2
Direct
  0.6666561735625152  0.3333123471250374  0.7500000000000000
  0.3333438264374848  0.6666876528749626  0.2500000000000000
  0.0000000000000000  0.0000000000000000  0.0000000000000000
  0.0000000000000000  0.0000000000000000  0.5000000000000000
  0.6666563984730161  0.3333127969460321  0.2500000000000000
  0.3333436015269839  0.6666872030539679  0.7500000000000000
 
  0.00000000E+00  0.00000000E+00  0.00000000E+00
  0.00000000E+00  0.00000000E+00  0.00000000E+00
  0.00000000E+00  0.00000000E+00  0.00000000E+00
  0.00000000E+00  0.00000000E+00  0.00000000E+00
  0.00000000E+00  0.00000000E+00  0.00000000E+00
  0.00000000E+00  0.00000000E+00  0.00000000E+00
