C1Ni2W4   [FCC,FCC,cF112] (STD_PRIM doi:
   1.22474500000000     
     0.0000000000000000    4.6323126926232989    4.6323126926232989
     4.6323126926232989    0.0000000000000000    4.6323126926232989
     4.6323126926232989    4.6323126926232989   -0.0000000000000000
   4   8  16
Direct
  0.5000000000000000  0.5000000000000000  0.5000000000000000
  0.5000000000000000  0.0000000000000000  0.5000000000000000
  0.5000000000000000  0.0000000000000000 -0.0000000000000000
 -0.0000000000000000  0.0000000000000000  0.5000000000000000
  0.2081639712999846  0.3755080861000391  0.2081639712999846
  0.2081639712999846  0.7081639712999847  0.2081639712999846
  0.2081639712999846  0.7081639712999847  0.8755080861000391
  0.8755080861000391  0.7081639712999847  0.2081639712999846
  0.7918360287000153  0.2918360287000154  0.7918360287000153
  0.7918360287000153  0.6244919138999609  0.7918360287000153
  0.7918360287000153  0.2918360287000154  0.1244919138999609
  0.1244919138999609  0.2918360287000154  0.7918360287000153
  0.0000000000000000 -0.0000000000000000  0.0000000000000000
 -0.0000000000000000  0.5000000000000000  0.0000000000000000
  0.0000000000000000  0.5000000000000000  0.5000000000000000
  0.5000000000000000  0.5000000000000000 -0.0000000000000000
  0.8159286880114736  0.3159286880114735  0.4340713119885265
  0.4340713119885265  0.9340713119885264  0.8159286880114736
  0.4340713119885265  0.3159286880114735  0.8159286880114736
  0.8159286880114736  0.9340713119885264  0.4340713119885265
  0.4340713119885265  0.3159286880114735  0.4340713119885265
  0.8159286880114736  0.9340713119885264  0.8159286880114736
  0.1840713119885265  0.0659286880114735  0.5659286880114736
  0.5659286880114736  0.6840713119885264  0.1840713119885265
  0.5659286880114736  0.0659286880114735  0.1840713119885265
  0.1840713119885265  0.6840713119885264  0.5659286880114736
  0.5659286880114736  0.6840713119885264  0.5659286880114736
  0.1840713119885265  0.0659286880114735  0.1840713119885265
 
  0.00000000E+00  0.00000000E+00  0.00000000E+00
  0.00000000E+00  0.00000000E+00  0.00000000E+00
  0.00000000E+00  0.00000000E+00  0.00000000E+00
  0.00000000E+00  0.00000000E+00  0.00000000E+00
  0.00000000E+00  0.00000000E+00  0.00000000E+00
  0.00000000E+00  0.00000000E+00  0.00000000E+00
  0.00000000E+00  0.00000000E+00  0.00000000E+00
  0.00000000E+00  0.00000000E+00  0.00000000E+00
  0.00000000E+00  0.00000000E+00  0.00000000E+00
  0.00000000E+00  0.00000000E+00  0.00000000E+00
  0.00000000E+00  0.00000000E+00  0.00000000E+00
  0.00000000E+00  0.00000000E+00  0.00000000E+00
  0.00000000E+00  0.00000000E+00  0.00000000E+00
  0.00000000E+00  0.00000000E+00  0.00000000E+00
  0.00000000E+00  0.00000000E+00  0.00000000E+00
  0.00000000E+00  0.00000000E+00  0.00000000E+00
  0.00000000E+00  0.00000000E+00  0.00000000E+00
  0.00000000E+00  0.00000000E+00  0.00000000E+00
  0.00000000E+00  0.00000000E+00  0.00000000E+00
  0.00000000E+00  0.00000000E+00  0.00000000E+00
  0.00000000E+00  0.00000000E+00  0.00000000E+00
  0.00000000E+00  0.00000000E+00  0.00000000E+00
  0.00000000E+00  0.00000000E+00  0.00000000E+00
  0.00000000E+00  0.00000000E+00  0.00000000E+00
  0.00000000E+00  0.00000000E+00  0.00000000E+00
  0.00000000E+00  0.00000000E+00  0.00000000E+00
  0.00000000E+00  0.00000000E+00  0.00000000E+00
  0.00000000E+00  0.00000000E+00  0.00000000E+00
