Hf1N2   [HEX,HEX,hP6] (STD_PRIM doi:10.1
   1.00000000000000     
     1.6301618050683087   -2.8235806643631136    0.0000000000000000
     1.6301618050683087    2.8235806643631136   -0.0000000000000000
     0.0000000000000000   -0.0000000000000000    7.5990548904032114
   2   4
Direct
  0.6666848633940712  0.3333151366059289  0.2500000000000000
  0.3333151366059289  0.6666848633940712  0.7500000000000000
  0.0000062277075306  0.9999937722924694  0.0940485012528237
  0.9999937722924694  0.0000062277075306  0.5940485012528237
  0.9999937722924694  0.0000062277075306  0.9059514987471763
  0.0000062277075306  0.9999937722924694  0.4059514987471763
 
  0.00000000E+00  0.00000000E+00  0.00000000E+00
  0.00000000E+00  0.00000000E+00  0.00000000E+00
  0.00000000E+00  0.00000000E+00  0.00000000E+00
  0.00000000E+00  0.00000000E+00  0.00000000E+00
  0.00000000E+00  0.00000000E+00  0.00000000E+00
  0.00000000E+00  0.00000000E+00  0.00000000E+00
