Si2W1   [BCT,BCT2,tI6] (STD_PRIM doi:10.
   1.00000000000000     
    -1.6200966054140888    1.6200966054140888    3.9440774727087970
     1.6200966054140888   -1.6200966054140888    3.9440774727087970
     1.6200966054140888    1.6200966054140888   -3.9440774727087970
   2   1
Direct
  0.6653459457919831  0.6653459457919831 -0.0000000000000000
  0.3346540542080169  0.3346540542080169  0.0000000000000000
  0.0000000000000000 -0.0000000000000000  0.0000000000000000
 
  0.00000000E+00  0.00000000E+00  0.00000000E+00
  0.00000000E+00  0.00000000E+00  0.00000000E+00
  0.00000000E+00  0.00000000E+00  0.00000000E+00
