Ce1Rh1   [ORCC,ORCC,oS8] (STD_PRIM doi:1
   1.00000000000000     
     1.9123464834696093   -5.6239006565474199    0.0000000000000000
     1.9123464834696093    5.6239006565474199    0.0000000000000000
     0.0000000000000000    0.0000000000000000    4.0660776443609628
   2   2
Direct
  0.1374590715931556  0.8625409284068445  0.7500000000000000
  0.8625409284068445  0.1374590715931556  0.2500000000000000
  0.4017592096208599  0.5982407903791400  0.7500000000000000
  0.5982407903791400  0.4017592096208599  0.2500000000000000
 
  0.00000000E+00  0.00000000E+00  0.00000000E+00
  0.00000000E+00  0.00000000E+00  0.00000000E+00
  0.00000000E+00  0.00000000E+00  0.00000000E+00
  0.00000000E+00  0.00000000E+00  0.00000000E+00
