Ho1Zn2   [ORCI,ORCI,oI12] (STD_PRIM doi:
   1.00000000000000     
    -2.2308904977107025    3.5254715888986525    3.7636810530818749
     2.2308904977107025   -3.5254715888986525    3.7636810530818749
     2.2308904977107025    3.5254715888986525   -3.7636810530818749
   2   4
Direct
  0.2780674796878330  0.5280674796878330  0.7500000000000000
  0.7219325203121670  0.4719325203121670  0.2500000000000000
  0.1248028890313050  0.1659445738045056  0.9588583152268064
  0.7070862585777062  0.1659445738045056  0.5411416847731936
  0.2929137414223009  0.8340554261954943  0.4588583152268065
  0.8751971109686950  0.8340554261954943  0.0411416847731935
 
  0.00000000E+00  0.00000000E+00  0.00000000E+00
  0.00000000E+00  0.00000000E+00  0.00000000E+00
  0.00000000E+00  0.00000000E+00  0.00000000E+00
  0.00000000E+00  0.00000000E+00  0.00000000E+00
  0.00000000E+00  0.00000000E+00  0.00000000E+00
  0.00000000E+00  0.00000000E+00  0.00000000E+00
