Au2Nb3   [CUB,CUB,cP20] (STD_PRIM doi:10
   1.00000000000000     
     7.1312892351647861    0.0000000000000000   -0.0000000000000000
     0.0000000000000000    7.1312892351647861   -0.0000000000000000
     0.0000000000000000    0.0000000000000000    7.1312892351647861
   8  12
Direct
  0.0556229895638532  0.0556229895638532  0.0556229895638532
  0.4443770104361469  0.9443770104361469  0.5556229895638531
  0.9443770104361469  0.5556229895638531  0.4443770104361469
  0.5556229895638531  0.4443770104361469  0.9443770104361469
  0.8056229895638531  0.3056229895638531  0.1943770104361468
  0.6943770104361469  0.6943770104361469  0.6943770104361469
  0.3056229895638531  0.1943770104361468  0.8056229895638531
  0.1943770104361468  0.8056229895638531  0.3056229895638531
  0.1250000000000000  0.1969306540510441  0.4469306540510440
  0.3750000000000000  0.8030693459489558  0.9469306540510442
  0.8750000000000000  0.6969306540510442  0.0530693459489559
  0.6250000000000000  0.3030693459489560  0.5530693459489558
  0.4469306540510440  0.1250000000000000  0.1969306540510441
  0.9469306540510442  0.3750000000000000  0.8030693459489558
  0.0530693459489559  0.8750000000000000  0.6969306540510442
  0.5530693459489558  0.6250000000000000  0.3030693459489560
  0.1969306540510441  0.4469306540510440  0.1250000000000000
  0.8030693459489558  0.9469306540510442  0.3750000000000000
  0.6969306540510442  0.0530693459489559  0.8750000000000000
  0.3030693459489560  0.5530693459489558  0.6250000000000000
 
  0.00000000E+00  0.00000000E+00  0.00000000E+00
  0.00000000E+00  0.00000000E+00  0.00000000E+00
  0.00000000E+00  0.00000000E+00  0.00000000E+00
  0.00000000E+00  0.00000000E+00  0.00000000E+00
  0.00000000E+00  0.00000000E+00  0.00000000E+00
  0.00000000E+00  0.00000000E+00  0.00000000E+00
  0.00000000E+00  0.00000000E+00  0.00000000E+00
  0.00000000E+00  0.00000000E+00  0.00000000E+00
  0.00000000E+00  0.00000000E+00  0.00000000E+00
  0.00000000E+00  0.00000000E+00  0.00000000E+00
  0.00000000E+00  0.00000000E+00  0.00000000E+00
  0.00000000E+00  0.00000000E+00  0.00000000E+00
  0.00000000E+00  0.00000000E+00  0.00000000E+00
  0.00000000E+00  0.00000000E+00  0.00000000E+00
  0.00000000E+00  0.00000000E+00  0.00000000E+00
  0.00000000E+00  0.00000000E+00  0.00000000E+00
  0.00000000E+00  0.00000000E+00  0.00000000E+00
  0.00000000E+00  0.00000000E+00  0.00000000E+00
  0.00000000E+00  0.00000000E+00  0.00000000E+00
  0.00000000E+00  0.00000000E+00  0.00000000E+00
