Mo4N1Ni2   [FCC,FCC,cF112] (STD_PRIM doi
   1.22474500000000     
    -0.0000000000000000    4.6047165980707101    4.6047165980707101
     4.6047165980707101    0.0000000000000000    4.6047165980707101
     4.6047165980707101    4.6047165980707101   -0.0000000000000000
  16   4   8
Direct
  0.5000000000137987  0.4999999999985008  0.4999999999911111
  0.5000000000088889  0.0000000000000000  0.4999999999911111
  0.4999999999965894  0.0000000000000000  0.0000000000000000
 -0.0000000000000000  0.0000000000000000  0.5000000000068070
  0.9321020837108535  0.4321020837133618  0.3178979162883364
  0.3178979162960458  0.8178979162858994  0.9321020837072013
  0.3178979162960459  0.4321020837121254  0.9321020837072013
  0.9321020837108535  0.8178979162871357  0.3178979162883364
  0.3178979162960459  0.4321020837121254  0.3178979162809752
  0.9321020837384438  0.8178979162841372  0.9321020836967918
  0.0678979162891465  0.1821020837128644  0.6821020837116635
  0.6821020837315516  0.5678979162848833  0.0678979162749996
  0.6821020837315516  0.1821020837111164  0.0678979162749996
  0.0678979163167439  0.5678979162836469  0.6821020836938644
  0.6821020837039541  0.5678979162878747  0.6821020837190247
  0.0678979162891465  0.1821020837128644  0.0678979162854374
  0.0000000000000000 -0.0000000000000000  0.0000000000000000
 -0.0000000000000000  0.5000000000000000  0.0000000000000000
  0.0000000000000000  0.4999999999970015  0.5000000000029985
  0.5000000000014992  0.4999999999985008  0.0000000000000000
  0.2914914662467951  0.1255256012830271  0.2914914662334795
  0.2914914662743996  0.7914914662348154  0.2914914662156875
  0.2914914662467951  0.7914914662378139  0.6255256012786928
  0.6255256013010181  0.7914914662368333  0.2914914662276673
  0.7085085337808024  0.2085085337591806  0.7085085337487356
  0.7085085337808024  0.8744743987139673  0.7085085337487427
  0.7085085337532049  0.2085085337621862  0.3744743987213072
  0.3744743987265794  0.2085085337601611  0.7085085337545407
 
  0.00000000E+00  0.00000000E+00  0.00000000E+00
  0.00000000E+00  0.00000000E+00  0.00000000E+00
  0.00000000E+00  0.00000000E+00  0.00000000E+00
  0.00000000E+00  0.00000000E+00  0.00000000E+00
  0.00000000E+00  0.00000000E+00  0.00000000E+00
  0.00000000E+00  0.00000000E+00  0.00000000E+00
  0.00000000E+00  0.00000000E+00  0.00000000E+00
  0.00000000E+00  0.00000000E+00  0.00000000E+00
  0.00000000E+00  0.00000000E+00  0.00000000E+00
  0.00000000E+00  0.00000000E+00  0.00000000E+00
  0.00000000E+00  0.00000000E+00  0.00000000E+00
  0.00000000E+00  0.00000000E+00  0.00000000E+00
  0.00000000E+00  0.00000000E+00  0.00000000E+00
  0.00000000E+00  0.00000000E+00  0.00000000E+00
  0.00000000E+00  0.00000000E+00  0.00000000E+00
  0.00000000E+00  0.00000000E+00  0.00000000E+00
  0.00000000E+00  0.00000000E+00  0.00000000E+00
  0.00000000E+00  0.00000000E+00  0.00000000E+00
  0.00000000E+00  0.00000000E+00  0.00000000E+00
  0.00000000E+00  0.00000000E+00  0.00000000E+00
  0.00000000E+00  0.00000000E+00  0.00000000E+00
  0.00000000E+00  0.00000000E+00  0.00000000E+00
  0.00000000E+00  0.00000000E+00  0.00000000E+00
  0.00000000E+00  0.00000000E+00  0.00000000E+00
  0.00000000E+00  0.00000000E+00  0.00000000E+00
  0.00000000E+00  0.00000000E+00  0.00000000E+00
  0.00000000E+00  0.00000000E+00  0.00000000E+00
  0.00000000E+00  0.00000000E+00  0.00000000E+00
