B3Nb2   [ORCC,ORCC,oS20] (STD_PRIM doi:1
   1.00000000000000     
     1.6666668155455364   -9.7805432080919790    0.0000000000000000
     1.6666668155455364    9.7805432080919790   -0.0000000000000000
     0.0000000000000000    0.0000000000000000    3.1419779441109599
   6   4
Direct
  0.9771693180086459  0.0228306819913541  0.2500000000000000
  0.0228306819913541  0.9771693180086459  0.7500000000000000
  0.8844848822644404  0.1155151177355595  0.2500000000000000
  0.1155151177355595  0.8844848822644404  0.7500000000000000
  0.1650447103410840  0.8349552896589160  0.2500000000000000
  0.8349552896589160  0.1650447103410840  0.7500000000000000
  0.5689593349819472  0.4310406650180528  0.2500000000000000
  0.4310406650180528  0.5689593349819472  0.7500000000000000
  0.2976406397589341  0.7023593602410659  0.2500000000000000
  0.7023593602410659  0.2976406397589341  0.7500000000000000
 
  0.00000000E+00  0.00000000E+00  0.00000000E+00
  0.00000000E+00  0.00000000E+00  0.00000000E+00
  0.00000000E+00  0.00000000E+00  0.00000000E+00
  0.00000000E+00  0.00000000E+00  0.00000000E+00
  0.00000000E+00  0.00000000E+00  0.00000000E+00
  0.00000000E+00  0.00000000E+00  0.00000000E+00
  0.00000000E+00  0.00000000E+00  0.00000000E+00
  0.00000000E+00  0.00000000E+00  0.00000000E+00
  0.00000000E+00  0.00000000E+00  0.00000000E+00
  0.00000000E+00  0.00000000E+00  0.00000000E+00
