Ga2Ho1Pd1 #63 - (Ga2Ho1Pd1_ICSD_600151) 
    1.000000000000000     
     2.2110279613096147   -5.0364943223840308    0.0000000000000000
     2.2110279613096147    5.0364943223840308    0.0000000000000000
     0.0000000000000000    0.0000000000000000    6.6338387524761391
   4   2   2
Direct
  0.8725303632990571  0.1274696367009429  0.9469804617951807
  0.1274696367009429  0.8725303632990571  0.4469804617951807
  0.8725303632990571  0.1274696367009429  0.5530195382048193
  0.1274696367009429  0.8725303632990571  0.0530195382048193
  0.5878882583771468  0.4121117416228532  0.7500000000000000
  0.4121117416228532  0.5878882583771468  0.2500000000000000
  0.2989020793634856  0.7010979206365144  0.7500000000000000
  0.7010979206365144  0.2989020793634856  0.2500000000000000
 
  0.00000000E+00  0.00000000E+00  0.00000000E+00
  0.00000000E+00  0.00000000E+00  0.00000000E+00
  0.00000000E+00  0.00000000E+00  0.00000000E+00
  0.00000000E+00  0.00000000E+00  0.00000000E+00
  0.00000000E+00  0.00000000E+00  0.00000000E+00
  0.00000000E+00  0.00000000E+00  0.00000000E+00
  0.00000000E+00  0.00000000E+00  0.00000000E+00
  0.00000000E+00  0.00000000E+00  0.00000000E+00
