Au1Pb4Rb3   [ORC,ORC,oP16] (STD_PRIM doi
   1.00000000000000     
     7.0278212037516390    0.0000000000000000    0.0000000000000000
    -0.0000000000000004    7.2215828149918275    0.0000000000000000
     0.0000000000000000    0.0000000000000000   13.5129044598079329
   2   8   6
Direct
  0.7096893780787538  0.2500000000000000  0.2500000000000000
  0.2903106219212461  0.7500000000000000  0.7500000000000000
  0.9393164569489949  0.5183139183831674  0.7500000000000000
  0.9393164569489949  0.9816860816168326  0.7500000000000000
  0.0606835430510052  0.4816860816168325  0.2500000000000000
  0.0606835430510052  0.0183139183831673  0.2500000000000000
  0.3547384078756506  0.2500000000000000  0.3713551299964907
  0.3547384078756506  0.2500000000000000  0.1286448700035092
  0.6452615921243497  0.7500000000000000  0.8713551299964905
  0.6452615921243497  0.7500000000000000  0.6286448700035095
  0.1649958662847137  0.7500000000000000 -0.0009668835032685
  0.1649958662847137  0.7500000000000000  0.5009668835032683
  0.8350041337152863  0.2500000000000000  0.4990331164967317
  0.8350041337152863  0.2500000000000000  0.0009668835032683
  0.4273195179453184  0.2500000000000000  0.7500000000000000
  0.5726804820546888  0.7500000000000000  0.2500000000000000
 
  0.00000000E+00  0.00000000E+00  0.00000000E+00
  0.00000000E+00  0.00000000E+00  0.00000000E+00
  0.00000000E+00  0.00000000E+00  0.00000000E+00
  0.00000000E+00  0.00000000E+00  0.00000000E+00
  0.00000000E+00  0.00000000E+00  0.00000000E+00
  0.00000000E+00  0.00000000E+00  0.00000000E+00
  0.00000000E+00  0.00000000E+00  0.00000000E+00
  0.00000000E+00  0.00000000E+00  0.00000000E+00
  0.00000000E+00  0.00000000E+00  0.00000000E+00
  0.00000000E+00  0.00000000E+00  0.00000000E+00
  0.00000000E+00  0.00000000E+00  0.00000000E+00
  0.00000000E+00  0.00000000E+00  0.00000000E+00
  0.00000000E+00  0.00000000E+00  0.00000000E+00
  0.00000000E+00  0.00000000E+00  0.00000000E+00
  0.00000000E+00  0.00000000E+00  0.00000000E+00
  0.00000000E+00  0.00000000E+00  0.00000000E+00
