Au1O1Rb1   [BCT,BCT1,tI24] (STD_PRIM doi
   1.00000000000000     
    -5.0684326563483770    5.0684326563483770    2.9604751781416572
     5.0684326563483770   -5.0684326563483770    2.9604751781416572
     5.0684326563483770    5.0684326563483770   -2.9604751781416572
   4   4   4
Direct
  0.8523948170810935  0.8523948170810935  0.7047896341621872
  0.1476051829189064  0.1476051829189064  0.2952103658378128
  0.8523948170810935  0.1476051829189064  0.0000000000000000
  0.1476051829189064  0.8523948170810935  0.0000000000000000
 -0.0000000000000000  0.7129209057591847  0.7129209057591847
  0.0000000000000000  0.2870790942408155  0.2870790942408155
  0.7129209057591847 -0.0000000000000000  0.7129209057591847
  0.2870790942408155  0.0000000000000000  0.2870790942408155
  0.5000000000000000  0.8076830244875219  0.3076830244875219
  0.5000000000000000  0.1923169755124781  0.6923169755124781
  0.8076830244875219  0.5000000000000000  0.3076830244875219
  0.1923169755124781  0.5000000000000000  0.6923169755124781
 
  0.00000000E+00  0.00000000E+00  0.00000000E+00
  0.00000000E+00  0.00000000E+00  0.00000000E+00
  0.00000000E+00  0.00000000E+00  0.00000000E+00
  0.00000000E+00  0.00000000E+00  0.00000000E+00
  0.00000000E+00  0.00000000E+00  0.00000000E+00
  0.00000000E+00  0.00000000E+00  0.00000000E+00
  0.00000000E+00  0.00000000E+00  0.00000000E+00
  0.00000000E+00  0.00000000E+00  0.00000000E+00
  0.00000000E+00  0.00000000E+00  0.00000000E+00
  0.00000000E+00  0.00000000E+00  0.00000000E+00
  0.00000000E+00  0.00000000E+00  0.00000000E+00
  0.00000000E+00  0.00000000E+00  0.00000000E+00
