Ge1 #186 - (Ge1_ICSD_636533) - Ge1 [Ge1]
   1.00000000000000     
     2.0223323662622263   -3.5027747463124870    0.0000000000000000
     2.0223323662622263    3.5027747463124870    0.0000000000000000
     0.0000000000000000    0.0000000000000000    6.6755578528167412
   4
Direct
  0.3333323239342160  0.6666676760657840  0.0003516305528428
  0.6666676760657840  0.3333323239342160  0.5003516305528428
  0.3333323239342160  0.6666676760657840  0.3746483694471572
  0.6666676760657840  0.3333323239342160  0.8746483694471572
 
  0.00000000E+00  0.00000000E+00  0.00000000E+00
  0.00000000E+00  0.00000000E+00  0.00000000E+00
  0.00000000E+00  0.00000000E+00  0.00000000E+00
  0.00000000E+00  0.00000000E+00  0.00000000E+00
