In1Pt1Sc1   [HEX,HEX,hP9] (STD_PRIM doi:
   1.00000000000000     
     3.7925403798280501   -6.5686759049415304    0.0000000000000000
     3.7925403798280501    6.5686759049415304    0.0000000000000000
     0.0000000000000000    0.0000000000000000    3.5918914280525369
   3   3   3
Direct
  0.2704487334940323  0.0000035795174401  0.5000000000000000
  0.0000035795174401  0.2704487334940323  0.5000000000000000
  0.7295513244377184  0.7295513244377184  0.5000000000000000
  0.9999929345705408  0.9999929345705408  0.0000000000000000
  0.3333346722306942  0.6666711054183537  0.5000000000000000
  0.6666711054183537  0.3333346722306942  0.5000000000000000
  0.6004799993062230  0.0000001579218787  0.0000000000000000
  0.0000001579218787  0.6004799993062230  0.0000000000000000
  0.3995174931031186  0.3995174931031186  0.0000000000000000
 
  0.00000000E+00  0.00000000E+00  0.00000000E+00
  0.00000000E+00  0.00000000E+00  0.00000000E+00
  0.00000000E+00  0.00000000E+00  0.00000000E+00
  0.00000000E+00  0.00000000E+00  0.00000000E+00
  0.00000000E+00  0.00000000E+00  0.00000000E+00
  0.00000000E+00  0.00000000E+00  0.00000000E+00
  0.00000000E+00  0.00000000E+00  0.00000000E+00
  0.00000000E+00  0.00000000E+00  0.00000000E+00
  0.00000000E+00  0.00000000E+00  0.00000000E+00
