Pd1Ta1   [TET,TET,tP4] (STD_PRIM doi:10.
   1.00000000000000     
     3.3185507770075016    0.0000000000000000   -0.0000000000000000
     0.0000000000000000    3.3185507770075016   -0.0000000000000000
    -0.0000000000000000   -0.0000000000000000    6.1123129706410477
   2   2
Direct
  0.2500000000000000  0.2500000000000000  0.6293017945229088
  0.7500000000000000  0.7500000000000000  0.3706982054770913
  0.2500000000000000  0.2500000000000000  0.1454808176962308
  0.7500000000000000  0.7500000000000000  0.8545191823037691
 
  0.00000000E+00  0.00000000E+00  0.00000000E+00
  0.00000000E+00  0.00000000E+00  0.00000000E+00
  0.00000000E+00  0.00000000E+00  0.00000000E+00
  0.00000000E+00  0.00000000E+00  0.00000000E+00
