Er5Sb3   [HEX,HEX,hP16] (STD_PRIM doi:10
   1.00000000000000     
     4.4511338344752041   -7.7095190261024431    0.0000000000000000
     4.4511338344752041    7.7095190261024431    0.0000000000000000
     0.0000000000000000    0.0000000000000000    6.2448696275982094
  10   6
Direct
  0.3333276839900380  0.6666723160099619  0.0000000000000000
  0.6666723160099619  0.3333276839900380  0.5000000000000000
  0.6666723160099619  0.3333276839900380  0.0000000000000000
  0.3333276839900380  0.6666723160099619  0.5000000000000000
  0.2459532042955436  0.0000056046157225  0.2500000000000000
  0.0000056046157225  0.2459532042955436  0.2500000000000000
  0.7540365959468465  0.7540365959468465  0.2500000000000000
  0.7540467957044564  0.9999943953842775  0.7500000000000000
  0.9999943953842775  0.7540467957044564  0.7500000000000000
  0.2459634040531536  0.2459634040531536  0.7500000000000000
  0.6103293179903208  0.9999953718835901  0.2500000000000000
  0.9999953718835901  0.6103293179903208  0.2500000000000000
  0.3896807565059225  0.3896807565059225  0.2500000000000000
  0.3896706820096792  0.0000046281164099  0.7500000000000000
  0.0000046281164099  0.3896706820096792  0.7500000000000000
  0.6103192434940775  0.6103192434940775  0.7500000000000000
 
  0.00000000E+00  0.00000000E+00  0.00000000E+00
  0.00000000E+00  0.00000000E+00  0.00000000E+00
  0.00000000E+00  0.00000000E+00  0.00000000E+00
  0.00000000E+00  0.00000000E+00  0.00000000E+00
  0.00000000E+00  0.00000000E+00  0.00000000E+00
  0.00000000E+00  0.00000000E+00  0.00000000E+00
  0.00000000E+00  0.00000000E+00  0.00000000E+00
  0.00000000E+00  0.00000000E+00  0.00000000E+00
  0.00000000E+00  0.00000000E+00  0.00000000E+00
  0.00000000E+00  0.00000000E+00  0.00000000E+00
  0.00000000E+00  0.00000000E+00  0.00000000E+00
  0.00000000E+00  0.00000000E+00  0.00000000E+00
  0.00000000E+00  0.00000000E+00  0.00000000E+00
  0.00000000E+00  0.00000000E+00  0.00000000E+00
  0.00000000E+00  0.00000000E+00  0.00000000E+00
  0.00000000E+00  0.00000000E+00  0.00000000E+00
