Er1Ga2Ni1   [ORCC,ORCC,oS16] (STD_PRIM d
   1.00000000000000     
     2.0628524843503007   -4.9403964346889024   -0.0000000000000000
     2.0628524843503007    4.9403964346889024    0.0000000000000000
     0.0000000000000000    0.0000000000000000    6.5936291767928417
   2   4   2
Direct
  0.4260463238464739  0.5739536761535261  0.7500000000000000
  0.5739536761535261  0.4260463238464739  0.2500000000000000
  0.1409482559504341  0.8590517440495659  0.9473694968803015
  0.8590517440495659  0.1409482559504341  0.4473694968803015
  0.1409482559504341  0.8590517440495659  0.5526305031196985
  0.8590517440495659  0.1409482559504341  0.0526305031196985
  0.7074374700053789  0.2925625299946283  0.7500000000000000
  0.2925625299946283  0.7074374700053789  0.2500000000000000
 
  0.00000000E+00  0.00000000E+00  0.00000000E+00
  0.00000000E+00  0.00000000E+00  0.00000000E+00
  0.00000000E+00  0.00000000E+00  0.00000000E+00
  0.00000000E+00  0.00000000E+00  0.00000000E+00
  0.00000000E+00  0.00000000E+00  0.00000000E+00
  0.00000000E+00  0.00000000E+00  0.00000000E+00
  0.00000000E+00  0.00000000E+00  0.00000000E+00
  0.00000000E+00  0.00000000E+00  0.00000000E+00
