Ce3S4   [BCC,BCC,cI28] (STD_PRIM doi:10.
   1.00000000000000     
    -4.2141619858874018    4.2141619858874018    4.2141619858874018
     4.2141619858874018   -4.2141619858874018    4.2141619858874018
     4.2141619858874018    4.2141619858874018   -4.2141619858874018
   6   8
Direct
  0.2500000000000000  0.6250000000000000  0.8750000000000000
  0.7500000000000000  0.8750000000000000  0.6250000000000000
  0.3750000000000000  0.1250000000000000  0.7500000000000000
  0.1250000000000000  0.3750000000000000  0.2500000000000000
  0.6250000000000000  0.2500000000000000  0.3750000000000000
  0.8750000000000000  0.7500000000000000  0.1250000000000000
  0.1504908817629413  0.0000000000000000  0.0000000000000000
  0.5000000000000000  0.5000000000000000  0.1504908817629413
  0.0000000000000000  0.6504908817629413  0.5000000000000000
  0.3495091182370587  0.8495091182370587  0.3495091182370587
  0.6504908817629413  0.0000000000000000  0.0000000000000000
  0.5000000000000000  0.5000000000000000  0.6504908817629413
  0.8495091182370587  0.3495091182370587  0.8495091182370587
  0.0000000000000000  0.1504908817629413  0.5000000000000000
 
  0.00000000E+00  0.00000000E+00  0.00000000E+00
  0.00000000E+00  0.00000000E+00  0.00000000E+00
  0.00000000E+00  0.00000000E+00  0.00000000E+00
  0.00000000E+00  0.00000000E+00  0.00000000E+00
  0.00000000E+00  0.00000000E+00  0.00000000E+00
  0.00000000E+00  0.00000000E+00  0.00000000E+00
  0.00000000E+00  0.00000000E+00  0.00000000E+00
  0.00000000E+00  0.00000000E+00  0.00000000E+00
  0.00000000E+00  0.00000000E+00  0.00000000E+00
  0.00000000E+00  0.00000000E+00  0.00000000E+00
  0.00000000E+00  0.00000000E+00  0.00000000E+00
  0.00000000E+00  0.00000000E+00  0.00000000E+00
  0.00000000E+00  0.00000000E+00  0.00000000E+00
  0.00000000E+00  0.00000000E+00  0.00000000E+00
