N2Sr1Ti1   [TET,TET,tP8] (STD_PRIM doi:1
   1.00000000000000     
     3.9323633343601681    0.0000000000000000    0.0000000000000000
     0.0000000000000000    3.9323633343601681    0.0000000000000000
    -0.0000000000000000    0.0000000000000000    7.8392713366550844
   4   2   2
Direct
  0.7500000000000000  0.2500000000000000  0.5000000000000000
  0.2500000000000000  0.7500000000000000  0.5000000000000000
  0.2500000000000000  0.2500000000000000  0.1732818153640218
  0.7500000000000000  0.7500000000000000  0.8267181846359782
  0.2500000000000000  0.2500000000000000  0.8428305739427461
  0.7500000000000000  0.7500000000000000  0.1571694260572539
  0.2500000000000000  0.2500000000000000  0.4124522930314505
  0.7500000000000000  0.7500000000000000  0.5875477069685495
 
  0.00000000E+00  0.00000000E+00  0.00000000E+00
  0.00000000E+00  0.00000000E+00  0.00000000E+00
  0.00000000E+00  0.00000000E+00  0.00000000E+00
  0.00000000E+00  0.00000000E+00  0.00000000E+00
  0.00000000E+00  0.00000000E+00  0.00000000E+00
  0.00000000E+00  0.00000000E+00  0.00000000E+00
  0.00000000E+00  0.00000000E+00  0.00000000E+00
  0.00000000E+00  0.00000000E+00  0.00000000E+00
