Cl2Hg2   [BCT,BCT2,tI8] (STD_PRIM doi:10
   1.00000000000000     
    -2.3481847823407671    2.3481847823407671    5.5458110914954908
     2.3481847823407671   -2.3481847823407671    5.5458110914954908
     2.3481847823407671    2.3481847823407671   -5.5458110914954908
   2   2
Direct
  0.3390985990245564  0.3390985990245564 -0.0000000000000000
  0.6609014009754436  0.6609014009754436  0.0000000000000000
  0.1178005492225066  0.1178005492225066 -0.0000000000000000
  0.8821994507774935  0.8821994507774935 -0.0000000000000000
 
  0.00000000E+00  0.00000000E+00  0.00000000E+00
  0.00000000E+00  0.00000000E+00  0.00000000E+00
  0.00000000E+00  0.00000000E+00  0.00000000E+00
  0.00000000E+00  0.00000000E+00  0.00000000E+00
