Ru2Si1   [ORC,ORC,oP12] (STD_PRIM doi:10
   1.00000000000000     
     4.0244022997738433    0.0000000000000000    0.0000000000000000
     0.0000000000000000    5.3136732414761809    0.0000000000000000
     0.0000000000000000    0.0000000000000000    7.4009617314587723
   8   4
Direct
  0.2500000000000000  0.8338615578686008  0.9340245039380327
  0.7500000000000000  0.6661384421313992  0.4340245039380327
  0.7500000000000000  0.1661384421313992  0.0659754960619674
  0.2500000000000000  0.3338615578686008  0.5659754960619673
  0.2500000000000000  0.9873848196088006  0.2883106443077613
  0.7500000000000000  0.5126151803911994  0.7883106443077613
  0.7500000000000000  0.0126151803911993  0.7116893556922387
  0.2500000000000000  0.4873848196088006  0.2116893556922387
  0.2500000000000000  0.2970222898442270  0.9027073730891656
  0.7500000000000000  0.2029777101557731  0.4027073730891657
  0.7500000000000000  0.7029777101557730  0.0972926269108344
  0.2500000000000000  0.7970222898442270  0.5972926269108344
 
  0.00000000E+00  0.00000000E+00  0.00000000E+00
  0.00000000E+00  0.00000000E+00  0.00000000E+00
  0.00000000E+00  0.00000000E+00  0.00000000E+00
  0.00000000E+00  0.00000000E+00  0.00000000E+00
  0.00000000E+00  0.00000000E+00  0.00000000E+00
  0.00000000E+00  0.00000000E+00  0.00000000E+00
  0.00000000E+00  0.00000000E+00  0.00000000E+00
  0.00000000E+00  0.00000000E+00  0.00000000E+00
  0.00000000E+00  0.00000000E+00  0.00000000E+00
  0.00000000E+00  0.00000000E+00  0.00000000E+00
  0.00000000E+00  0.00000000E+00  0.00000000E+00
  0.00000000E+00  0.00000000E+00  0.00000000E+00
