Re4S4Te4   [FCC,FCC,cF48] (STD_PRIM doi:
   1.22474500000000     
     0.0000000000000000    4.1636875706759149    4.1636875706759149
     4.1636875706759149   -0.0000000000000000    4.1636875706759149
     4.1636875706759149    4.1636875706759149   -0.0000000000000000
   4   4   4
Direct
  0.7931578081102636  0.4022807306299145  0.4022807306299145
  0.4022807306299145  0.4022807306299145  0.4022807306299145
  0.4022807306299145  0.7931578081102636  0.4022807306299145
  0.4022807306299145  0.4022807306299145  0.7931578081102636
  0.1140007490272424  0.6286664169909215  0.6286664169909215
  0.6286664169909215  0.6286664169909215  0.6286664169909215
  0.6286664169909215  0.1140007490272424  0.6286664169909215
  0.6286664169909215  0.6286664169909215  0.1140007490272424
  0.6172703845044114  0.1275765384985271  0.1275765384985271
  0.1275765384985271  0.1275765384985271  0.1275765384985271
  0.1275765384985271  0.6172703845044114  0.1275765384985271
  0.1275765384985271  0.1275765384985271  0.6172703845044114
 
  0.00000000E+00  0.00000000E+00  0.00000000E+00
  0.00000000E+00  0.00000000E+00  0.00000000E+00
  0.00000000E+00  0.00000000E+00  0.00000000E+00
  0.00000000E+00  0.00000000E+00  0.00000000E+00
  0.00000000E+00  0.00000000E+00  0.00000000E+00
  0.00000000E+00  0.00000000E+00  0.00000000E+00
  0.00000000E+00  0.00000000E+00  0.00000000E+00
  0.00000000E+00  0.00000000E+00  0.00000000E+00
  0.00000000E+00  0.00000000E+00  0.00000000E+00
  0.00000000E+00  0.00000000E+00  0.00000000E+00
  0.00000000E+00  0.00000000E+00  0.00000000E+00
  0.00000000E+00  0.00000000E+00  0.00000000E+00
