Al1Zr2   [HEX,HEX,hP6] (STD_PRIM doi:10.
   1.00000000000000     
     2.4550365456870651   -4.2519824304368345    0.0000000000000000
     2.4550365456870651    4.2519824304368345   -0.0000000000000000
     0.0000000000000000   -0.0000000000000000    5.9400105397171314
   2   4
Direct
  0.3333175260562224  0.6666824739437776  0.2500000000000000
  0.6666824739437776  0.3333175260562224  0.7500000000000000
 -0.0000000000000000  0.0000000000000000 -0.0000000000000000
  0.0000000000000000 -0.0000000000000000  0.5000000000000000
  0.3333195314053681  0.6666804685946319  0.7500000000000000
  0.6666804685946319  0.3333195314053681  0.2500000000000000
 
  0.00000000E+00  0.00000000E+00  0.00000000E+00
  0.00000000E+00  0.00000000E+00  0.00000000E+00
  0.00000000E+00  0.00000000E+00  0.00000000E+00
  0.00000000E+00  0.00000000E+00  0.00000000E+00
  0.00000000E+00  0.00000000E+00  0.00000000E+00
  0.00000000E+00  0.00000000E+00  0.00000000E+00
