Mg2O4Sn1   [FCC,FCC,cF56] (STD_PRIM doi:
   1.22474500000000     
     0.0000000000000000    3.5671145449512598    3.5671145449512598
     3.5671145449512598    0.0000000000000000    3.5671145449512598
     3.5671145449512598    3.5671145449512598    0.0000000000000000
   4   8   2
Direct
  0.5000000000000000  0.5000000000000000  0.5000000000000000
  0.5000000000000000  0.0000000000000000  0.5000000000000000
  0.5000000000000000  0.0000000000000000  0.0000000000000000
  0.0000000000000000  0.0000000000000000  0.5000000000000000
  0.2593368580573241  0.2219894258280348  0.2593368580573241
  0.2593368580573241  0.7593368580573241  0.2593368580573241
  0.2593368580573241  0.7593368580573241  0.7219894258280348
  0.7219894258280348  0.7593368580573241  0.2593368580573241
  0.7406631419426759  0.2406631419426759  0.7406631419426759
  0.7406631419426759  0.7780105741719652  0.7406631419426759
  0.7406631419426759  0.2406631419426759  0.2780105741719652
  0.2780105741719652  0.2406631419426759  0.7406631419426759
  0.1250000000000000  0.6250000000000000  0.1250000000000000
  0.8750000000000000  0.3750000000000000  0.8750000000000000
 
  0.00000000E+00  0.00000000E+00  0.00000000E+00
  0.00000000E+00  0.00000000E+00  0.00000000E+00
  0.00000000E+00  0.00000000E+00  0.00000000E+00
  0.00000000E+00  0.00000000E+00  0.00000000E+00
  0.00000000E+00  0.00000000E+00  0.00000000E+00
  0.00000000E+00  0.00000000E+00  0.00000000E+00
  0.00000000E+00  0.00000000E+00  0.00000000E+00
  0.00000000E+00  0.00000000E+00  0.00000000E+00
  0.00000000E+00  0.00000000E+00  0.00000000E+00
  0.00000000E+00  0.00000000E+00  0.00000000E+00
  0.00000000E+00  0.00000000E+00  0.00000000E+00
  0.00000000E+00  0.00000000E+00  0.00000000E+00
  0.00000000E+00  0.00000000E+00  0.00000000E+00
  0.00000000E+00  0.00000000E+00  0.00000000E+00
