C11N4   [ORC,ORC,oP15] (STD_PRIM doi:10.
   1.00000000000000     
     3.4992554377574216    0.0000000000000000    0.0000000000000000
     0.0000000000000000    3.6034748425815835    0.0000000000000000
     0.0000000000000000    0.0000000000000000    7.3437914410099312
  11   4
Direct
  0.5000000000000000  0.5000000000000000  0.2554495380903107
  0.5000000000000000  0.5000000000000000  0.7445504619096893
  0.0000000000000000  0.5000000000000000  0.5000000000000000
  0.0000000000000000  0.0000000000000000  0.2787172430470130
  0.0000000000000000  0.0000000000000000  0.7212827569529870
  0.2305440369933031  0.2356221815075794  0.1396084220739392
  0.7694559630066968  0.7643778184924206  0.1396084220739392
  0.7694559630066968  0.2356221815075794  0.8603915779260607
  0.2305440369933031  0.7643778184924206  0.8603915779260607
  0.0000000000000000  0.5000000000000000  0.0000000000000000
  0.0000000000000000  0.0000000000000000  0.0000000000000000
  0.7555943728748795  0.2671691121748577  0.3809838571188870
  0.2444056271251205  0.7328308878251423  0.3809838571188870
  0.2444056271251205  0.2671691121748577  0.6190161428811130
  0.7555943728748795  0.7328308878251423  0.6190161428811130
 
  0.00000000E+00  0.00000000E+00  0.00000000E+00
  0.00000000E+00  0.00000000E+00  0.00000000E+00
  0.00000000E+00  0.00000000E+00  0.00000000E+00
  0.00000000E+00  0.00000000E+00  0.00000000E+00
  0.00000000E+00  0.00000000E+00  0.00000000E+00
  0.00000000E+00  0.00000000E+00  0.00000000E+00
  0.00000000E+00  0.00000000E+00  0.00000000E+00
  0.00000000E+00  0.00000000E+00  0.00000000E+00
  0.00000000E+00  0.00000000E+00  0.00000000E+00
  0.00000000E+00  0.00000000E+00  0.00000000E+00
  0.00000000E+00  0.00000000E+00  0.00000000E+00
  0.00000000E+00  0.00000000E+00  0.00000000E+00
  0.00000000E+00  0.00000000E+00  0.00000000E+00
  0.00000000E+00  0.00000000E+00  0.00000000E+00
  0.00000000E+00  0.00000000E+00  0.00000000E+00
