Co1Ni2S4   [FCC,FCC,cF56] (STD_PRIM doi:
   1.22474500000000     
    -0.0000000000000000    4.0284741415797187    4.0284741415797187
     4.0284741415797187    0.0000000000000000    4.0284741415797187
     4.0284741415797187    4.0284741415797187    0.0000000000000000
   2   4   8
Direct
 -0.0000000000000000 -0.0000000000000000 -0.0000000000000000
  0.2500000000000000  0.2500000000000000  0.2500000000000000
  0.6250000000000000  0.6250000000000000  0.6250000000000000
  0.1250000000000000  0.6250000000000000  0.6250000000000000
  0.6250000000000000  0.6250000000000000  0.1250000000000000
  0.6250000000000000  0.1250000000000000  0.6250000000000000
  0.3856680781786765  0.3856680781786765  0.3856680781786765
  0.8429957654639847  0.3856680781786765  0.3856680781786765
  0.3856680781786765  0.3856680781786765  0.8429957654639847
  0.3856680781786765  0.8429957654639847  0.3856680781786765
  0.4070042345360152  0.8643319218213235  0.8643319218213235
  0.8643319218213235  0.8643319218213235  0.8643319218213235
  0.8643319218213235  0.8643319218213235  0.4070042345360152
  0.8643319218213235  0.4070042345360152  0.8643319218213235
 
  0.00000000E+00  0.00000000E+00  0.00000000E+00
  0.00000000E+00  0.00000000E+00  0.00000000E+00
  0.00000000E+00  0.00000000E+00  0.00000000E+00
  0.00000000E+00  0.00000000E+00  0.00000000E+00
  0.00000000E+00  0.00000000E+00  0.00000000E+00
  0.00000000E+00  0.00000000E+00  0.00000000E+00
  0.00000000E+00  0.00000000E+00  0.00000000E+00
  0.00000000E+00  0.00000000E+00  0.00000000E+00
  0.00000000E+00  0.00000000E+00  0.00000000E+00
  0.00000000E+00  0.00000000E+00  0.00000000E+00
  0.00000000E+00  0.00000000E+00  0.00000000E+00
  0.00000000E+00  0.00000000E+00  0.00000000E+00
  0.00000000E+00  0.00000000E+00  0.00000000E+00
  0.00000000E+00  0.00000000E+00  0.00000000E+00
