Co1Sb3   [BCC,BCC,cI32] (STD_PRIM doi:10
   1.00000000000000     
    -4.5442180385586806    4.5442180385586806    4.5442180385586806
     4.5442180385586806   -4.5442180385586806    4.5442180385586806
     4.5442180385586806    4.5442180385586806   -4.5442180385586806
   4  12
Direct
  0.0000000000000000  0.5000000000000000  0.0000000000000000
  0.5000000000000000 -0.0000000000000000 -0.0000000000000000
  0.5000000000000000  0.5000000000000000  0.5000000000000000
 -0.0000000000000000  0.0000000000000000  0.5000000000000000
  0.1747583791968870  0.8408249209380325  0.3339334582588473
  0.5068914626791781  0.8408249209380325  0.6660665417411527
  0.4931085373208220  0.1591750790619604  0.3339334582588473
  0.8252416208031130  0.1591750790619604  0.6660665417411527
  0.6660665417411527  0.5068914626791781  0.8408249209380325
  0.3339334582588473  0.1747583791968870  0.8408249209380325
  0.6660665417411527  0.8252416208031130  0.1591750790619604
  0.3339334582588473  0.4931085373208220  0.1591750790619604
  0.1591750790619604  0.6660665417411527  0.8252416208031130
  0.1591750790619604  0.3339334582588473  0.4931085373208220
  0.8408249209380325  0.6660665417411527  0.5068914626791781
  0.8408249209380325  0.3339334582588473  0.1747583791968870
 
  0.00000000E+00  0.00000000E+00  0.00000000E+00
  0.00000000E+00  0.00000000E+00  0.00000000E+00
  0.00000000E+00  0.00000000E+00  0.00000000E+00
  0.00000000E+00  0.00000000E+00  0.00000000E+00
  0.00000000E+00  0.00000000E+00  0.00000000E+00
  0.00000000E+00  0.00000000E+00  0.00000000E+00
  0.00000000E+00  0.00000000E+00  0.00000000E+00
  0.00000000E+00  0.00000000E+00  0.00000000E+00
  0.00000000E+00  0.00000000E+00  0.00000000E+00
  0.00000000E+00  0.00000000E+00  0.00000000E+00
  0.00000000E+00  0.00000000E+00  0.00000000E+00
  0.00000000E+00  0.00000000E+00  0.00000000E+00
  0.00000000E+00  0.00000000E+00  0.00000000E+00
  0.00000000E+00  0.00000000E+00  0.00000000E+00
  0.00000000E+00  0.00000000E+00  0.00000000E+00
  0.00000000E+00  0.00000000E+00  0.00000000E+00
