Ag1I1   [HEX,HEX,hP4] (STD_PRIM doi:10.1
   1.00000000000000     
     2.3494430392810446   -4.0688828349840120    0.0000000000000000
     2.3494430392810446    4.0688828349840120    0.0000000000000000
     0.0000000000000000    0.0000000000000000    7.6885148214680319
   2   2
Direct
  0.3333096512146270  0.6666903487853730  0.6253934048927263
  0.6666903487853730  0.3333096512146270  0.1253934048927263
  0.3333109591494647  0.6666890408505353  0.0000065951072727
  0.6666890408505353  0.3333109591494647  0.5000065951072727
 
  0.00000000E+00  0.00000000E+00  0.00000000E+00
  0.00000000E+00  0.00000000E+00  0.00000000E+00
  0.00000000E+00  0.00000000E+00  0.00000000E+00
  0.00000000E+00  0.00000000E+00  0.00000000E+00
