Cl8Co1Li6   [FCC,FCC,cF60] (STD_PRIM doi
   1.22474500000000     
     0.0000000000000000    4.2077489311065932    4.2077489311065932
     4.2077489311065932    0.0000000000000000    4.2077489311065932
     4.2077489311065932    4.2077489311065932    0.0000000000000000
   8   1   6
Direct
  0.7500000000000000  0.7500000000000000  0.7500000000000000
  0.2500000000000000  0.2500000000000000  0.2500000000000000
  0.7610561571586061  0.2389438428413939  0.2389438428413939
  0.2389438428413939  0.7610561571586061  0.7610561571586061
  0.7610561571586061  0.7610561571586061  0.2389438428413939
  0.2389438428413939  0.2389438428413939  0.7610561571586061
  0.2389438428413939  0.7610561571586061  0.2389438428413939
  0.7610561571586061  0.2389438428413939  0.7610561571586061
  0.0000000000000000  0.0000000000000000  0.0000000000000000
  0.0000000000000000  0.5000000000000000  0.5000000000000000
  0.5000000000000000  0.0000000000000000  0.0000000000000000
  0.0000000000000000  0.0000000000000000  0.5000000000000000
  0.5000000000000000  0.5000000000000000  0.0000000000000000
  0.5000000000000000  0.0000000000000000  0.5000000000000000
  0.0000000000000000  0.5000000000000000  0.0000000000000000
 
  0.00000000E+00  0.00000000E+00  0.00000000E+00
  0.00000000E+00  0.00000000E+00  0.00000000E+00
  0.00000000E+00  0.00000000E+00  0.00000000E+00
  0.00000000E+00  0.00000000E+00  0.00000000E+00
  0.00000000E+00  0.00000000E+00  0.00000000E+00
  0.00000000E+00  0.00000000E+00  0.00000000E+00
  0.00000000E+00  0.00000000E+00  0.00000000E+00
  0.00000000E+00  0.00000000E+00  0.00000000E+00
  0.00000000E+00  0.00000000E+00  0.00000000E+00
  0.00000000E+00  0.00000000E+00  0.00000000E+00
  0.00000000E+00  0.00000000E+00  0.00000000E+00
  0.00000000E+00  0.00000000E+00  0.00000000E+00
  0.00000000E+00  0.00000000E+00  0.00000000E+00
  0.00000000E+00  0.00000000E+00  0.00000000E+00
  0.00000000E+00  0.00000000E+00  0.00000000E+00
