Ge1Rh2   [ORC,ORC,oP12] (STD_PRIM doi:10
   1.00000000000000     
     4.0562648335299407    0.0000000000000000    0.0000000000000000
    -0.0000000000000000    5.5113489391725148    0.0000000000000000
     0.0000000000000000    0.0000000000000000    7.6183164543110085
   4   8
Direct
  0.2500000000000000  0.7138378295441146  0.6032818819469106
  0.7500000000000000  0.7861621704558854  0.1032818819469105
  0.7500000000000000  0.2861621704558854  0.3967181180530894
  0.2500000000000000  0.2138378295441146  0.8967181180530894
  0.2500000000000000  0.0301256242249257  0.2057267356901230
  0.7500000000000000  0.4698743757750743  0.7057267356901230
  0.7500000000000000  0.9698743757750742  0.7942732643098770
  0.2500000000000000  0.5301256242249258  0.2942732643098770
  0.2500000000000000  0.1645539625509269  0.5703849803059856
  0.7500000000000000  0.3354460374490731  0.0703849803059856
  0.7500000000000000  0.8354460374490731  0.4296150196940144
  0.2500000000000000  0.6645539625509269  0.9296150196940144
 
  0.00000000E+00  0.00000000E+00  0.00000000E+00
  0.00000000E+00  0.00000000E+00  0.00000000E+00
  0.00000000E+00  0.00000000E+00  0.00000000E+00
  0.00000000E+00  0.00000000E+00  0.00000000E+00
  0.00000000E+00  0.00000000E+00  0.00000000E+00
  0.00000000E+00  0.00000000E+00  0.00000000E+00
  0.00000000E+00  0.00000000E+00  0.00000000E+00
  0.00000000E+00  0.00000000E+00  0.00000000E+00
  0.00000000E+00  0.00000000E+00  0.00000000E+00
  0.00000000E+00  0.00000000E+00  0.00000000E+00
  0.00000000E+00  0.00000000E+00  0.00000000E+00
  0.00000000E+00  0.00000000E+00  0.00000000E+00
