Br6Rb2Sn1   [FCC,FCC,cF36] (STD_PRIM doi
   1.22474500000000     
     0.0000000000000000    4.5243305880623348    4.5243305880623348
     4.5243305880623348    0.0000000000000000    4.5243305880623348
     4.5243305880623348    4.5243305880623348    0.0000000000000000
   6   2   1
Direct
  0.2416517372852169  0.7583482627147831  0.2416517372852169
  0.7583482627147831  0.2416517372852169  0.7583482627147831
  0.2416517372852169  0.7583482627147831  0.7583482627147831
  0.7583482627147831  0.2416517372852169  0.2416517372852169
  0.2416517372852169  0.2416517372852169  0.7583482627147831
  0.7583482627147831  0.7583482627147831  0.2416517372852169
  0.7500000000000000  0.7500000000000000  0.7500000000000000
  0.2500000000000000  0.2500000000000000  0.2500000000000000
  0.0000000000000000  0.0000000000000000  0.0000000000000000
 
  0.00000000E+00  0.00000000E+00  0.00000000E+00
  0.00000000E+00  0.00000000E+00  0.00000000E+00
  0.00000000E+00  0.00000000E+00  0.00000000E+00
  0.00000000E+00  0.00000000E+00  0.00000000E+00
  0.00000000E+00  0.00000000E+00  0.00000000E+00
  0.00000000E+00  0.00000000E+00  0.00000000E+00
  0.00000000E+00  0.00000000E+00  0.00000000E+00
  0.00000000E+00  0.00000000E+00  0.00000000E+00
  0.00000000E+00  0.00000000E+00  0.00000000E+00
