B3Ni1W3   [ORCC,ORCC,oS28] (STD_PRIM doi
   1.00000000000000     
     1.6074379047828775   -4.2391372577150559   -0.0000000000000000
     1.6074379047828775    4.2391372577150559    0.0000000000000000
     0.0000000000000000   -0.0000000000000000   10.8122145004063075
   6   2   6
Direct
  0.9114184436372175  0.0885815563627825  0.8960660137018186
  0.0885815563627825  0.9114184436372175  0.3960660137018187
  0.9114184436372175  0.0885815563627825  0.6039339862981814
  0.0885815563627825  0.9114184436372175  0.1039339862981814
  0.7914158030866433  0.2085841969133568  0.7500000000000000
  0.2085841969133568  0.7914158030866433  0.2500000000000000
  0.5000000000000000  0.5000000000000000  0.0000000000000000
  0.5000000000000000  0.5000000000000000  0.5000000000000000
  0.2114656582008959  0.7885343417991041  0.8921586812664112
  0.7885343417991041  0.2114656582008959  0.3921586812664111
  0.2114656582008959  0.7885343417991041  0.6078413187335888
  0.7885343417991041  0.2114656582008959  0.1078413187335889
  0.4976905249919760  0.5023094750080239  0.7500000000000000
  0.5023094750080239  0.4976905249919760  0.2500000000000000
 
  0.00000000E+00  0.00000000E+00  0.00000000E+00
  0.00000000E+00  0.00000000E+00  0.00000000E+00
  0.00000000E+00  0.00000000E+00  0.00000000E+00
  0.00000000E+00  0.00000000E+00  0.00000000E+00
  0.00000000E+00  0.00000000E+00  0.00000000E+00
  0.00000000E+00  0.00000000E+00  0.00000000E+00
  0.00000000E+00  0.00000000E+00  0.00000000E+00
  0.00000000E+00  0.00000000E+00  0.00000000E+00
  0.00000000E+00  0.00000000E+00  0.00000000E+00
  0.00000000E+00  0.00000000E+00  0.00000000E+00
  0.00000000E+00  0.00000000E+00  0.00000000E+00
  0.00000000E+00  0.00000000E+00  0.00000000E+00
  0.00000000E+00  0.00000000E+00  0.00000000E+00
  0.00000000E+00  0.00000000E+00  0.00000000E+00
