La2S3   [ORC,ORC,oP20] (STD_PRIM doi:10.
   1.00000000000000     
     4.1859586476747737    0.0000000000000000    0.0000000000000000
     0.0000000000000000    7.6783859161653698    0.0000000000000000
     0.0000000000000000    0.0000000000000000   16.0447853886445770
   8  12
Direct
  0.2500000000000000  0.7645297010344227  0.4552268534212858
  0.7500000000000000  0.7354702989655773  0.9552268534212859
  0.7500000000000000  0.2354702989655772  0.5447731465787141
  0.2500000000000000  0.2645297010344228  0.0447731465787142
  0.2500000000000000  0.1465956351817682  0.7959736538893439
  0.7500000000000000  0.3534043648182318  0.2959736538893439
  0.7500000000000000  0.8534043648182318  0.2040263461106561
  0.2500000000000000  0.6465956351817682  0.7040263461106561
  0.2500000000000000  0.0102163432148250  0.6096152547937171
  0.7500000000000000  0.4897836567851749  0.1096152547937172
  0.7500000000000000  0.9897836567851750  0.3903847452062828
  0.2500000000000000  0.5102163432148250  0.8903847452062829
  0.2500000000000000  0.1438473582067595  0.2195575319043090
  0.7500000000000000  0.3561526417932406  0.7195575319043089
  0.7500000000000000  0.8561526417932405  0.7804424680956911
  0.2500000000000000  0.6438473582067595  0.2804424680956910
  0.2500000000000000  0.3726238369338929  0.4329412119351984
  0.7500000000000000  0.1273761630661071  0.9329412119351984
  0.7500000000000000  0.6273761630661071  0.5670587880648016
  0.2500000000000000  0.8726238369338929  0.0670587880648016
 
  0.00000000E+00  0.00000000E+00  0.00000000E+00
  0.00000000E+00  0.00000000E+00  0.00000000E+00
  0.00000000E+00  0.00000000E+00  0.00000000E+00
  0.00000000E+00  0.00000000E+00  0.00000000E+00
  0.00000000E+00  0.00000000E+00  0.00000000E+00
  0.00000000E+00  0.00000000E+00  0.00000000E+00
  0.00000000E+00  0.00000000E+00  0.00000000E+00
  0.00000000E+00  0.00000000E+00  0.00000000E+00
  0.00000000E+00  0.00000000E+00  0.00000000E+00
  0.00000000E+00  0.00000000E+00  0.00000000E+00
  0.00000000E+00  0.00000000E+00  0.00000000E+00
  0.00000000E+00  0.00000000E+00  0.00000000E+00
  0.00000000E+00  0.00000000E+00  0.00000000E+00
  0.00000000E+00  0.00000000E+00  0.00000000E+00
  0.00000000E+00  0.00000000E+00  0.00000000E+00
  0.00000000E+00  0.00000000E+00  0.00000000E+00
  0.00000000E+00  0.00000000E+00  0.00000000E+00
  0.00000000E+00  0.00000000E+00  0.00000000E+00
  0.00000000E+00  0.00000000E+00  0.00000000E+00
  0.00000000E+00  0.00000000E+00  0.00000000E+00
