As2Cu1Er1   [TET,TET,tP8] (STD_PRIM doi:
   1.00000000000000     
     3.8850128593123907    0.0000000000000000   -0.0000000000000000
     0.0000000000000000    3.8850128593123907    0.0000000000000000
     0.0000000000000000    0.0000000000000000    9.8396264969388607
   4   2   2
Direct
  0.7500000000000000  0.2500000000000000 -0.0000000000000000
  0.2500000000000000  0.7500000000000000  0.0000000000000000
  0.7500000000000000  0.7500000000000000  0.3365840468776892
  0.2500000000000000  0.2500000000000000  0.6634159531223107
  0.7500000000000000  0.2500000000000000  0.5000000000000000
  0.2500000000000000  0.7500000000000000  0.5000000000000000
  0.2500000000000000  0.2500000000000000  0.2363448211908662
  0.7500000000000000  0.7500000000000000  0.7636551788091339
 
  0.00000000E+00  0.00000000E+00  0.00000000E+00
  0.00000000E+00  0.00000000E+00  0.00000000E+00
  0.00000000E+00  0.00000000E+00  0.00000000E+00
  0.00000000E+00  0.00000000E+00  0.00000000E+00
  0.00000000E+00  0.00000000E+00  0.00000000E+00
  0.00000000E+00  0.00000000E+00  0.00000000E+00
  0.00000000E+00  0.00000000E+00  0.00000000E+00
  0.00000000E+00  0.00000000E+00  0.00000000E+00
