Ru2Si2Th1   [BCT,BCT2,tI10] (STD_PRIM do
   1.00000000000000     
    -2.1176615540178068    2.1176615540178068    4.9625817543386361
     2.1176615540178068   -2.1176615540178068    4.9625817543386361
     2.1176615540178068    2.1176615540178068   -4.9625817543386361
   2   2   1
Direct
  0.7500000000000000  0.2500000000000000  0.5000000000000000
  0.2500000000000000  0.7500000000000000  0.5000000000000000
  0.6359744861909381  0.6359744861909381  0.0000000000000000
  0.3640255138090618  0.3640255138090618  0.0000000000000000
  0.0000000000000000  0.0000000000000000  0.0000000000000000
 
  0.00000000E+00  0.00000000E+00  0.00000000E+00
  0.00000000E+00  0.00000000E+00  0.00000000E+00
  0.00000000E+00  0.00000000E+00  0.00000000E+00
  0.00000000E+00  0.00000000E+00  0.00000000E+00
  0.00000000E+00  0.00000000E+00  0.00000000E+00
