B6Hf2Ni21   [FCC,FCC,cF116] (STD_PRIM do
   1.22474500000000     
     0.0000000000000000    4.2841041040819112    4.2841041040819112
     4.2841041040819112    0.0000000000000000    4.2841041040819112
     4.2841041040819112    4.2841041040819112    0.0000000000000000
   6   2  21
Direct
  0.7316845153439370  0.2683154846560630  0.7316845153439370
  0.2683154846560630  0.7316845153439370  0.2683154846560630
  0.2683154846560630  0.7316845153439370  0.7316845153439370
  0.7316845153439370  0.2683154846560630  0.2683154846560630
  0.7316845153439370  0.7316845153439370  0.2683154846560630
  0.2683154846560630  0.2683154846560630  0.7316845153439370
  0.7500000000000000  0.7500000000000000  0.7500000000000000
  0.2500000000000000  0.2500000000000000  0.2500000000000000
 -0.0000000000000000 -0.0000000000000000  0.0000000000000000
  0.6141472307167046  0.6141472307167046  0.6141472307167046
  0.6141472307167046  0.6141472307167046  0.1575583078498718
  0.1575583078498718  0.6141472307167046  0.6141472307167046
  0.6141472307167046  0.1575583078498718  0.6141472307167046
  0.3858527692832953  0.3858527692832953  0.8424416921501282
  0.3858527692832953  0.3858527692832953  0.3858527692832953
  0.8424416921501282  0.3858527692832953  0.3858527692832953
  0.3858527692832953  0.8424416921501282  0.3858527692832953
  0.0000000000000000  0.6613779821673811 -0.0000000000000000
  0.6613779821673811  0.0000000000000000  0.3386220178326189
  0.3386220178326189 -0.0000000000000000  0.6613779821673811
 -0.0000000000000000  0.3386220178326189  0.0000000000000000
  0.6613779821673811 -0.0000000000000000  0.0000000000000000
  0.0000000000000000  0.3386220178326189  0.6613779821673811
 -0.0000000000000000  0.6613779821673811  0.3386220178326189
  0.3386220178326189  0.0000000000000000 -0.0000000000000000
  0.0000000000000000 -0.0000000000000000  0.6613779821673811
  0.3386220178326189  0.6613779821673811  0.0000000000000000
  0.6613779821673811  0.3386220178326189 -0.0000000000000000
 -0.0000000000000000  0.0000000000000000  0.3386220178326189
 
  0.00000000E+00  0.00000000E+00  0.00000000E+00
  0.00000000E+00  0.00000000E+00  0.00000000E+00
  0.00000000E+00  0.00000000E+00  0.00000000E+00
  0.00000000E+00  0.00000000E+00  0.00000000E+00
  0.00000000E+00  0.00000000E+00  0.00000000E+00
  0.00000000E+00  0.00000000E+00  0.00000000E+00
  0.00000000E+00  0.00000000E+00  0.00000000E+00
  0.00000000E+00  0.00000000E+00  0.00000000E+00
  0.00000000E+00  0.00000000E+00  0.00000000E+00
  0.00000000E+00  0.00000000E+00  0.00000000E+00
  0.00000000E+00  0.00000000E+00  0.00000000E+00
  0.00000000E+00  0.00000000E+00  0.00000000E+00
  0.00000000E+00  0.00000000E+00  0.00000000E+00
  0.00000000E+00  0.00000000E+00  0.00000000E+00
  0.00000000E+00  0.00000000E+00  0.00000000E+00
  0.00000000E+00  0.00000000E+00  0.00000000E+00
  0.00000000E+00  0.00000000E+00  0.00000000E+00
  0.00000000E+00  0.00000000E+00  0.00000000E+00
  0.00000000E+00  0.00000000E+00  0.00000000E+00
  0.00000000E+00  0.00000000E+00  0.00000000E+00
  0.00000000E+00  0.00000000E+00  0.00000000E+00
  0.00000000E+00  0.00000000E+00  0.00000000E+00
  0.00000000E+00  0.00000000E+00  0.00000000E+00
  0.00000000E+00  0.00000000E+00  0.00000000E+00
  0.00000000E+00  0.00000000E+00  0.00000000E+00
  0.00000000E+00  0.00000000E+00  0.00000000E+00
  0.00000000E+00  0.00000000E+00  0.00000000E+00
  0.00000000E+00  0.00000000E+00  0.00000000E+00
  0.00000000E+00  0.00000000E+00  0.00000000E+00
