Ca1Ge1Zn1   [HEX,HEX,hP6] (STD_PRIM doi:
   1.00000000000000     
     2.1536444948807971   -3.7302216865745543    0.0000000000000000
     2.1534887686588537    3.7301317779983956   -0.0000000000000000
     0.0000000000000000   -0.0000000000000000    8.1883857294262619
   2   2   2
Direct
  0.0000000000000000  0.0000000000000000  0.0000000000000000
  0.0000000000000000  0.0000000000000000  0.5000000000000000
  0.6666750757920948  0.3333501515841896  0.7500000000000000
  0.3333249242079052  0.6666498484158104  0.2500000000000000
  0.6666754326749631  0.3333508653499193  0.2500000000000000
  0.3333245673250368  0.6666491346500808  0.7500000000000000
 
  0.00000000E+00  0.00000000E+00  0.00000000E+00
  0.00000000E+00  0.00000000E+00  0.00000000E+00
  0.00000000E+00  0.00000000E+00  0.00000000E+00
  0.00000000E+00  0.00000000E+00  0.00000000E+00
  0.00000000E+00  0.00000000E+00  0.00000000E+00
  0.00000000E+00  0.00000000E+00  0.00000000E+00
