Fe1Zr2   [BCT,BCT1,tI12] (STD_PRIM doi:1
   1.00000000000000     
    -3.4585650692599228    3.4585650692599228    2.5319501500966997
     3.4585650692599228   -3.4585650692599228    2.5319501500966997
     3.4585650692599228    3.4585650692599228   -2.5319501500966997
   2   4
Direct
  0.7500000000000000  0.7500000000000000  0.0000000000000000
  0.2500000000000000  0.2500000000000000  0.0000000000000000
  0.6586797629952403  0.8413202370047597  0.5000000000000000
  0.3413202370047597  0.1586797629952403  0.5000000000000000
  0.1586797629952403  0.6586797629952403  0.8173595259904736
  0.8413202370047597  0.3413202370047597  0.1826404740095264
 
  0.00000000E+00  0.00000000E+00  0.00000000E+00
  0.00000000E+00  0.00000000E+00  0.00000000E+00
  0.00000000E+00  0.00000000E+00  0.00000000E+00
  0.00000000E+00  0.00000000E+00  0.00000000E+00
  0.00000000E+00  0.00000000E+00  0.00000000E+00
  0.00000000E+00  0.00000000E+00  0.00000000E+00
