Ba4Bi3   [BCC,BCC,cI28] (STD_PRIM doi:10
   1.00000000000000     
    -5.3616513411288018    5.3616513411288018    5.3616513411288018
     5.3616513411288018   -5.3616513411288018    5.3616513411288018
     5.3616513411288018    5.3616513411288018   -5.3616513411288018
   8   6
Direct
  0.0000000000000000 -0.0000000000000000  0.1449351847200826
  0.8550648152799173  0.3550648152799173  0.3550648152799173
  0.5000000000000000  0.1449351847200826  0.5000000000000000
  0.6449351847200827  0.5000000000000000 -0.0000000000000000
 -0.0000000000000000  0.0000000000000000  0.6449351847200827
  0.3550648152799173  0.8550648152799173  0.8550648152799173
  0.1449351847200826  0.5000000000000000  0.0000000000000000
  0.5000000000000000  0.6449351847200827  0.5000000000000000
  0.1250000000000000  0.7500000000000000  0.3750000000000000
  0.3750000000000000  0.2500000000000000  0.1250000000000000
  0.2500000000000000  0.3750000000000000  0.6250000000000000
  0.7500000000000000  0.1250000000000000  0.8750000000000000
  0.6250000000000000  0.8750000000000000  0.2500000000000000
  0.8750000000000000  0.6250000000000000  0.7500000000000000
 
  0.00000000E+00  0.00000000E+00  0.00000000E+00
  0.00000000E+00  0.00000000E+00  0.00000000E+00
  0.00000000E+00  0.00000000E+00  0.00000000E+00
  0.00000000E+00  0.00000000E+00  0.00000000E+00
  0.00000000E+00  0.00000000E+00  0.00000000E+00
  0.00000000E+00  0.00000000E+00  0.00000000E+00
  0.00000000E+00  0.00000000E+00  0.00000000E+00
  0.00000000E+00  0.00000000E+00  0.00000000E+00
  0.00000000E+00  0.00000000E+00  0.00000000E+00
  0.00000000E+00  0.00000000E+00  0.00000000E+00
  0.00000000E+00  0.00000000E+00  0.00000000E+00
  0.00000000E+00  0.00000000E+00  0.00000000E+00
  0.00000000E+00  0.00000000E+00  0.00000000E+00
  0.00000000E+00  0.00000000E+00  0.00000000E+00
