Ir1Si1Ta1   [ORC,ORC,oP12] (STD_PRIM doi
   1.00000000000000     
     3.8049172478082967    0.0000000000000000    0.0000000000000000
    -0.0000000000000000    6.4321072620131092    0.0000000000000000
     0.0000000000000000    0.0000000000000000    7.3073726791965337
   4   4   4
Direct
  0.2500000000000000  0.3554963517111047  0.5655811872328086
  0.7500000000000000  0.1445036482888953  0.0655811872328086
  0.7500000000000000  0.6445036482888953  0.4344188127671914
  0.2500000000000000  0.8554963517111047  0.9344188127671914
  0.2500000000000000  0.7305320724924348  0.6232788563894825
  0.7500000000000000  0.7694679275075652  0.1232788563894826
  0.7500000000000000  0.2694679275075652  0.3767211436105174
  0.2500000000000000  0.2305320724924348  0.8767211436105175
  0.2500000000000000  0.9765174486435796  0.3274459953042745
  0.7500000000000000  0.5234825513564204  0.8274459953042745
  0.7500000000000000  0.0234825513564204  0.6725540046957255
  0.2500000000000000  0.4765174486435796  0.1725540046957255
 
  0.00000000E+00  0.00000000E+00  0.00000000E+00
  0.00000000E+00  0.00000000E+00  0.00000000E+00
  0.00000000E+00  0.00000000E+00  0.00000000E+00
  0.00000000E+00  0.00000000E+00  0.00000000E+00
  0.00000000E+00  0.00000000E+00  0.00000000E+00
  0.00000000E+00  0.00000000E+00  0.00000000E+00
  0.00000000E+00  0.00000000E+00  0.00000000E+00
  0.00000000E+00  0.00000000E+00  0.00000000E+00
  0.00000000E+00  0.00000000E+00  0.00000000E+00
  0.00000000E+00  0.00000000E+00  0.00000000E+00
  0.00000000E+00  0.00000000E+00  0.00000000E+00
  0.00000000E+00  0.00000000E+00  0.00000000E+00
