Al2Ni1Y1   [ORCC,ORCC,oS16] (STD_PRIM do
   1.00000000000000     
     2.0129903613903148   -5.1564780959444958   -0.0000000000000000
     2.0129903613903148    5.1564780959444958    0.0000000000000000
     0.0000000000000000    0.0000000000000000    6.8603256619716007
   4   2   2
Direct
  0.3402756749457357  0.6597243250542643  0.9453401711179071
  0.6597243250542643  0.3402756749457357  0.4453401711179070
  0.3402756749457357  0.6597243250542643  0.5546598288820929
  0.6597243250542643  0.3402756749457357  0.0546598288820929
  0.7831638672157986  0.2168361327842015  0.7500000000000000
  0.2168361327842015  0.7831638672157986  0.2500000000000000
  0.0583155226553528  0.9416844773446471  0.7500000000000000
  0.9416844773446471  0.0583155226553528  0.2500000000000000
 
  0.00000000E+00  0.00000000E+00  0.00000000E+00
  0.00000000E+00  0.00000000E+00  0.00000000E+00
  0.00000000E+00  0.00000000E+00  0.00000000E+00
  0.00000000E+00  0.00000000E+00  0.00000000E+00
  0.00000000E+00  0.00000000E+00  0.00000000E+00
  0.00000000E+00  0.00000000E+00  0.00000000E+00
  0.00000000E+00  0.00000000E+00  0.00000000E+00
  0.00000000E+00  0.00000000E+00  0.00000000E+00
