Ga3Os1Tb1   [CUB,CUB,cP15] (STD_PRIM doi
   1.00000000000000     
     6.4289125515777670    0.0000000000000000   -0.0000000000000000
     0.0000000000000000    6.4289125515777670    0.0000000000000000
    -0.0000000000000000    0.0000000000000000    6.4289125515777670
   9   3   3
Direct
  0.2899514166578361  0.2899514166578361  0.2899514166578361
  0.7100485833421639  0.7100485833421639  0.2899514166578361
  0.7100485833421639  0.2899514166578361  0.7100485833421639
  0.2899514166578361  0.7100485833421639  0.7100485833421639
  0.2899514166578361  0.2899514166578361  0.7100485833421639
  0.7100485833421639  0.7100485833421639  0.7100485833421639
  0.2899514166578361  0.7100485833421639  0.2899514166578361
  0.7100485833421639  0.2899514166578361  0.2899514166578361
  0.0000000000000000  0.0000000000000000  0.0000000000000000
  0.0000000000000000  0.5000000000000000  0.5000000000000000
  0.5000000000000000  0.0000000000000000  0.5000000000000000
  0.5000000000000000  0.5000000000000000  0.0000000000000000
  0.5000000000000000  0.0000000000000000  0.0000000000000000
  0.0000000000000000  0.5000000000000000  0.0000000000000000
  0.0000000000000000  0.0000000000000000  0.5000000000000000
 
  0.00000000E+00  0.00000000E+00  0.00000000E+00
  0.00000000E+00  0.00000000E+00  0.00000000E+00
  0.00000000E+00  0.00000000E+00  0.00000000E+00
  0.00000000E+00  0.00000000E+00  0.00000000E+00
  0.00000000E+00  0.00000000E+00  0.00000000E+00
  0.00000000E+00  0.00000000E+00  0.00000000E+00
  0.00000000E+00  0.00000000E+00  0.00000000E+00
  0.00000000E+00  0.00000000E+00  0.00000000E+00
  0.00000000E+00  0.00000000E+00  0.00000000E+00
  0.00000000E+00  0.00000000E+00  0.00000000E+00
  0.00000000E+00  0.00000000E+00  0.00000000E+00
  0.00000000E+00  0.00000000E+00  0.00000000E+00
  0.00000000E+00  0.00000000E+00  0.00000000E+00
  0.00000000E+00  0.00000000E+00  0.00000000E+00
  0.00000000E+00  0.00000000E+00  0.00000000E+00
