La1Pb1Pd1 #189 - (La1Pb1Pd1_ICSD_657940)
   1.00000000000000     
     3.9679915453090255   -6.8728293439640114    0.0000000000000000
     3.9679915453090255    6.8728293439640114    0.0000000000000000
     0.0000000000000000    0.0000000000000000    4.2388224601965412
   3   3   3
Direct
  0.5889852937072070  0.9999981324077973  0.5000000000000000
  0.9999981324077973  0.5889852937072070  0.5000000000000000
  0.4110161140125098  0.4110161140125098  0.5000000000000000
  0.2524397459279604  0.0000063533900006  0.0000000000000000
  0.0000063533900006  0.2524397459279604  0.0000000000000000
  0.7475540625338934  0.7475540625338934  0.0000000000000000
  0.3333189014691179  0.6666806835063462  0.0000000000000000
  0.6666806835063462  0.3333189014691179  0.0000000000000000
  0.0000007130451672  0.0000007130451672  0.5000000000000000
 
  0.00000000E+00  0.00000000E+00  0.00000000E+00
  0.00000000E+00  0.00000000E+00  0.00000000E+00
  0.00000000E+00  0.00000000E+00  0.00000000E+00
  0.00000000E+00  0.00000000E+00  0.00000000E+00
  0.00000000E+00  0.00000000E+00  0.00000000E+00
  0.00000000E+00  0.00000000E+00  0.00000000E+00
  0.00000000E+00  0.00000000E+00  0.00000000E+00
  0.00000000E+00  0.00000000E+00  0.00000000E+00
  0.00000000E+00  0.00000000E+00  0.00000000E+00
