Ir1Sb3   [BCC,BCC,cI32] (STD_PRIM doi:10
   1.00000000000000     
    -4.6806382756887457    4.6806382756887457    4.6806382756887457
     4.6806382756887457   -4.6806382756887457    4.6806382756887457
     4.6806382756887457    4.6806382756887457   -4.6806382756887457
   4  12
Direct
  0.5000000000000000  0.0000000000000000  0.0000000000000000
  0.5000000000000000  0.5000000000000000  0.5000000000000000
 -0.0000000000000000  0.5000000000000000  0.0000000000000000
  0.0000000000000000 -0.0000000000000000  0.5000000000000000
  0.6603350654764673  0.8145214801144202  0.1541864146379458
  0.3396649345235327  0.4938513491614785  0.1541864146379458
  0.6603350654764673  0.5061486508385215  0.8458135853620542
  0.3396649345235327  0.1854785198855798  0.8458135853620542
  0.8458135853620542  0.3396649345235327  0.1854785198855798
  0.8458135853620542  0.6603350654764673  0.5061486508385215
  0.1541864146379458  0.3396649345235327  0.4938513491614785
  0.1541864146379458  0.6603350654764673  0.8145214801144202
  0.5061486508385215  0.8458135853620542  0.6603350654764673
  0.1854785198855798  0.8458135853620542  0.3396649345235327
  0.8145214801144202  0.1541864146379458  0.6603350654764673
  0.4938513491614785  0.1541864146379458  0.3396649345235327
 
  0.00000000E+00  0.00000000E+00  0.00000000E+00
  0.00000000E+00  0.00000000E+00  0.00000000E+00
  0.00000000E+00  0.00000000E+00  0.00000000E+00
  0.00000000E+00  0.00000000E+00  0.00000000E+00
  0.00000000E+00  0.00000000E+00  0.00000000E+00
  0.00000000E+00  0.00000000E+00  0.00000000E+00
  0.00000000E+00  0.00000000E+00  0.00000000E+00
  0.00000000E+00  0.00000000E+00  0.00000000E+00
  0.00000000E+00  0.00000000E+00  0.00000000E+00
  0.00000000E+00  0.00000000E+00  0.00000000E+00
  0.00000000E+00  0.00000000E+00  0.00000000E+00
  0.00000000E+00  0.00000000E+00  0.00000000E+00
  0.00000000E+00  0.00000000E+00  0.00000000E+00
  0.00000000E+00  0.00000000E+00  0.00000000E+00
  0.00000000E+00  0.00000000E+00  0.00000000E+00
  0.00000000E+00  0.00000000E+00  0.00000000E+00
