B2W1   [HEX,HEX,hP12] (STD_PRIM doi:10.1
   1.00000000000000     
     1.5142871601208783   -2.6228222985785492    0.0000000000000000
     1.5145339554178698    2.6229647859097027    0.0000000000000000
     0.0000000000000000   -0.0000000000000000   14.1443787825166165
   8   4
Direct
  0.6666706874524662  0.3333413749049394  0.9771798722216721
  0.3333293125475339  0.6666586250950607  0.4771798722216721
  0.3333293125475339  0.6666586250950607  0.0228201277783279
  0.6666706874524662  0.3333413749049394  0.5228201277783279
  0.6666659783929244  0.3333319567858418  0.7500000000000000
  0.3333340216070755  0.6666680432141582  0.2500000000000000
  0.0000027092143464  0.0000054184286929  0.2500000000000000
  0.9999972907856536  0.9999945815713072  0.7500000000000000
  0.6666680257459106  0.3333360514918209  0.1348700821175305
  0.3333319742540895  0.6666639485081790  0.6348700821175305
  0.3333319742540895  0.6666639485081790  0.8651299178824695
  0.6666680257459106  0.3333360514918209  0.3651299178824695
 
  0.00000000E+00  0.00000000E+00  0.00000000E+00
  0.00000000E+00  0.00000000E+00  0.00000000E+00
  0.00000000E+00  0.00000000E+00  0.00000000E+00
  0.00000000E+00  0.00000000E+00  0.00000000E+00
  0.00000000E+00  0.00000000E+00  0.00000000E+00
  0.00000000E+00  0.00000000E+00  0.00000000E+00
  0.00000000E+00  0.00000000E+00  0.00000000E+00
  0.00000000E+00  0.00000000E+00  0.00000000E+00
  0.00000000E+00  0.00000000E+00  0.00000000E+00
  0.00000000E+00  0.00000000E+00  0.00000000E+00
  0.00000000E+00  0.00000000E+00  0.00000000E+00
  0.00000000E+00  0.00000000E+00  0.00000000E+00
