Ba1Cd1Ge1   [HEX,HEX,hP6] (STD_PRIM doi:
   1.00000000000000     
     2.3800029601402524   -4.1222860491272471    0.0000000000000000
     2.3799642087180115    4.1222636759831843    0.0000000000000000
     0.0000000000000000    0.0000000000000000    9.6022555376680661
   2   2   2
Direct
 -0.0000000000000000 -0.0000000000000000 -0.0000000000000000
  0.0000000000000000  0.0000000000000000  0.5000000000000000
  0.6666649234773137  0.3333298469546273  0.2500000000000000
  0.3333350765226864  0.6666701530453728  0.7500000000000000
  0.6666523642824518  0.3333047285649037  0.7500000000000000
  0.3333476357175482  0.6666952714350963  0.2500000000000000
 
  0.00000000E+00  0.00000000E+00  0.00000000E+00
  0.00000000E+00  0.00000000E+00  0.00000000E+00
  0.00000000E+00  0.00000000E+00  0.00000000E+00
  0.00000000E+00  0.00000000E+00  0.00000000E+00
  0.00000000E+00  0.00000000E+00  0.00000000E+00
  0.00000000E+00  0.00000000E+00  0.00000000E+00
