P1Ru1Ta1 #62 - (P1Ru1Ta1_ICSD_648031) - 
   1.00000000000000     
     3.7378080452250031    0.0000000000000000    0.0000000000000000
    -0.0000000000000000    6.3470514695344535    0.0000000000000000
     0.0000000000000000    0.0000000000000000    7.2078893706188678
   4   4   4
Direct
  0.2500000000000000  0.7693110862638449  0.3756940544806491
  0.7500000000000000  0.7306889137361551  0.8756940544806491
  0.7500000000000000  0.2306889137361550  0.6243059455193509
  0.2500000000000000  0.2693110862638450  0.1243059455193509
  0.2500000000000000  0.1449382678840253  0.4358202771129519
  0.7500000000000000  0.3550617321159747  0.9358202771129519
  0.7500000000000000  0.8550617321159747  0.5641797228870481
  0.2500000000000000  0.6449382678840253  0.0641797228870481
  0.2500000000000000  0.0233076587398756  0.8279105354159353
  0.7500000000000000  0.4766923412601244  0.3279105354159353
  0.7500000000000000  0.9766923412601244  0.1720894645840646
  0.2500000000000000  0.5233076587398756  0.6720894645840647
 
  0.00000000E+00  0.00000000E+00  0.00000000E+00
  0.00000000E+00  0.00000000E+00  0.00000000E+00
  0.00000000E+00  0.00000000E+00  0.00000000E+00
  0.00000000E+00  0.00000000E+00  0.00000000E+00
  0.00000000E+00  0.00000000E+00  0.00000000E+00
  0.00000000E+00  0.00000000E+00  0.00000000E+00
  0.00000000E+00  0.00000000E+00  0.00000000E+00
  0.00000000E+00  0.00000000E+00  0.00000000E+00
  0.00000000E+00  0.00000000E+00  0.00000000E+00
  0.00000000E+00  0.00000000E+00  0.00000000E+00
  0.00000000E+00  0.00000000E+00  0.00000000E+00
  0.00000000E+00  0.00000000E+00  0.00000000E+00
