Cu3Se2   [TET,TET,tP10] (STD_PRIM doi:10
   1.00000000000000     
     6.4493965285470987    0.0000000000000000    0.0000000000000000
     0.0000000000000000    6.4493965285470987    0.0000000000000000
     0.0000000000000000   -0.0000000000000000    4.3294356620171417
   6   4
Direct
  0.0000000000000000  0.0000000000000000  0.0000000000000000
  0.5000000000000000  0.5000000000000000  0.0000000000000000
  0.1465434148931031  0.3534565851068969  0.7505114772181649
  0.8534565851068969  0.6465434148931031  0.7505114772181649
  0.3534565851068969  0.8534565851068969  0.2494885227818351
  0.6465434148931031  0.1465434148931031  0.2494885227818351
  0.2732855258864770  0.2267144741135230  0.2577746175009012
  0.7267144741135230  0.7732855258864770  0.2577746175009012
  0.2267144741135230  0.7267144741135230  0.7422253824990988
  0.7732855258864770  0.2732855258864770  0.7422253824990988
 
  0.00000000E+00  0.00000000E+00  0.00000000E+00
  0.00000000E+00  0.00000000E+00  0.00000000E+00
  0.00000000E+00  0.00000000E+00  0.00000000E+00
  0.00000000E+00  0.00000000E+00  0.00000000E+00
  0.00000000E+00  0.00000000E+00  0.00000000E+00
  0.00000000E+00  0.00000000E+00  0.00000000E+00
  0.00000000E+00  0.00000000E+00  0.00000000E+00
  0.00000000E+00  0.00000000E+00  0.00000000E+00
  0.00000000E+00  0.00000000E+00  0.00000000E+00
  0.00000000E+00  0.00000000E+00  0.00000000E+00
