Ba1Hg1Sn1   [HEX,HEX,hP6] (STD_PRIM doi:
   1.00000000000000     
     2.5172683076845712   -4.3601019830399101   -0.0000000000000000
     2.5172683076845712    4.3601019830399101    0.0000000000000000
     0.0000000000000000    0.0000000000000000    9.6562370346075674
   2   2   2
Direct
  0.0000000000000000  0.0000000000000000  0.0000000000000000
 -0.0000000000000000 -0.0000000000000000  0.5000000000000000
  0.3333358071850908  0.6666641928149092  0.2500000000000000
  0.6666641928149092  0.3333358071850908  0.7500000000000000
  0.3333353382680637  0.6666646617319363  0.7500000000000000
  0.6666646617319363  0.3333353382680637  0.2500000000000000
 
  0.00000000E+00  0.00000000E+00  0.00000000E+00
  0.00000000E+00  0.00000000E+00  0.00000000E+00
  0.00000000E+00  0.00000000E+00  0.00000000E+00
  0.00000000E+00  0.00000000E+00  0.00000000E+00
  0.00000000E+00  0.00000000E+00  0.00000000E+00
  0.00000000E+00  0.00000000E+00  0.00000000E+00
