Al1K1Te2   [BCT,BCT1,tI16] (STD_PRIM doi
   1.00000000000000     
    -4.3657755763289172    4.3657755763289172    3.5049482497794937
     4.3657755763289172   -4.3657755763289172    3.5049482497794937
     4.3657755763289172    4.3657755763289172   -3.5049482497794937
   2   2   4
Direct
  0.2500000000000000  0.7500000000000000  0.5000000000000000
  0.7500000000000000  0.2500000000000000  0.5000000000000000
  0.7500000000000000  0.7500000000000000  0.0000000000000000
  0.2500000000000000  0.2500000000000000  0.0000000000000000
  0.6632334909069846  0.8367665090930154  0.5000000000000000
  0.3367665090930155  0.1632334909069845  0.5000000000000000
  0.1632334909069845  0.6632334909069846  0.8264669818139690
  0.8367665090930154  0.3367665090930155  0.1735330181860310
 
  0.00000000E+00  0.00000000E+00  0.00000000E+00
  0.00000000E+00  0.00000000E+00  0.00000000E+00
  0.00000000E+00  0.00000000E+00  0.00000000E+00
  0.00000000E+00  0.00000000E+00  0.00000000E+00
  0.00000000E+00  0.00000000E+00  0.00000000E+00
  0.00000000E+00  0.00000000E+00  0.00000000E+00
  0.00000000E+00  0.00000000E+00  0.00000000E+00
  0.00000000E+00  0.00000000E+00  0.00000000E+00
