Au2Y1   [BCT,BCT2,tI6] (STD_PRIM doi:10.
   1.00000000000000     
    -1.8699304731752242    1.8699304731752242    4.5269799825518762
     1.8699304731752242   -1.8699304731752242    4.5269799825518762
     1.8699304731752242    1.8699304731752242   -4.5269799825518762
   2   1
Direct
  0.3346894499766975  0.3346894499766975  0.0000000000000000
  0.6653105500233024  0.6653105500233024 -0.0000000000000000
  0.0000000000000000 -0.0000000000000000  0.0000000000000000
 
  0.00000000E+00  0.00000000E+00  0.00000000E+00
  0.00000000E+00  0.00000000E+00  0.00000000E+00
  0.00000000E+00  0.00000000E+00  0.00000000E+00
