N1Re1   [HEX,HEX,hP4] (STD_PRIM doi:10.1
   1.00000000000000     
     1.4031962047677085   -2.4304071196454933    0.0000000000000000
     1.4032275604579929    2.4304252228617202    0.0000000000000000
     0.0000000000000000    0.0000000000000000    5.9159948021828415
   2   2
Direct
  0.6666798456515669  0.3333596913031339  0.2500000000000000
  0.3333201543484330  0.6666403086968661  0.7500000000000000
 -0.0000000000000000 -0.0000000000000000 -0.0000000000000000
  0.0000000000000000  0.0000000000000000  0.5000000000000000
 
  0.00000000E+00  0.00000000E+00  0.00000000E+00
  0.00000000E+00  0.00000000E+00  0.00000000E+00
  0.00000000E+00  0.00000000E+00  0.00000000E+00
  0.00000000E+00  0.00000000E+00  0.00000000E+00
