Na1Nb1O3   [TET,TET,tP10] (STD_PRIM doi:
   1.00000000000000     
     5.5504847578575349    0.0000000000000000   -0.0000000000000000
     0.0000000000000000    5.5504847578575349    0.0000000000000000
     0.0000000000000000    0.0000000000000000    3.9946883728795357
   2   2   6
Direct
  0.0000000000000000  0.5000000000000000  0.5000000000000000
  0.5000000000000000  0.0000000000000000  0.5000000000000000
  0.0000000000000000  0.0000000000000000  0.0000000000000000
  0.5000000000000000  0.5000000000000000  0.0000000000000000
  0.0000000000000000  0.0000000000000000  0.5000000000000000
  0.5000000000000000  0.5000000000000000  0.5000000000000000
  0.2984380545676151  0.2015619454323848 -0.0000000000000000
  0.7015619454323848  0.7984380545676152  0.0000000000000000
  0.7984380545676152  0.2984380545676151 -0.0000000000000000
  0.2015619454323848  0.7015619454323848  0.0000000000000000
 
  0.00000000E+00  0.00000000E+00  0.00000000E+00
  0.00000000E+00  0.00000000E+00  0.00000000E+00
  0.00000000E+00  0.00000000E+00  0.00000000E+00
  0.00000000E+00  0.00000000E+00  0.00000000E+00
  0.00000000E+00  0.00000000E+00  0.00000000E+00
  0.00000000E+00  0.00000000E+00  0.00000000E+00
  0.00000000E+00  0.00000000E+00  0.00000000E+00
  0.00000000E+00  0.00000000E+00  0.00000000E+00
  0.00000000E+00  0.00000000E+00  0.00000000E+00
  0.00000000E+00  0.00000000E+00  0.00000000E+00
