Cs1F3Sr1 #221 - (Cs1F3Sr1_ICSD_49578) - 
   1.00000000000000     
     4.8216375200351385   -0.0000000000000000    0.0000000000000000
     0.0000000000000000    4.8216375200351385   -0.0000000000000000
    -0.0000000000000000   -0.0000000000000000    4.8216375200351385
   1   3   1
Direct
  0.0000000000000000  0.0000000000000000  0.0000000000000000
  0.5000000000000000  0.5000000000000000  0.0000000000000000
  0.0000000000000000  0.5000000000000000  0.5000000000000000
  0.5000000000000000  0.0000000000000000  0.5000000000000000
  0.5000000000000000  0.5000000000000000  0.5000000000000000
 
  0.00000000E+00  0.00000000E+00  0.00000000E+00
  0.00000000E+00  0.00000000E+00  0.00000000E+00
  0.00000000E+00  0.00000000E+00  0.00000000E+00
  0.00000000E+00  0.00000000E+00  0.00000000E+00
  0.00000000E+00  0.00000000E+00  0.00000000E+00
