Li1Sb1Zn1   [HEX,HEX,hP6] (STD_PRIM doi:
   1.00000000000000     
     2.2242232477429260   -3.8524676724666067    0.0000000000000000
     2.2241968061314763    3.8524524063951198   -0.0000000000000000
     0.0000000000000001   -0.0000000000000000    7.1831759344764388
   2   2   2
Direct
  0.0000176247374993  0.0000352494750057  0.1809934907627817
  0.9999823752625008  0.9999647505249943  0.6809934907627816
  0.6666649957586163  0.3333299915172325  0.3920804774241497
  0.3333350042413838  0.6666700084827676  0.8920804774241498
  0.6666721011602509  0.3333442023205017  0.0079260318130646
  0.3333278988397492  0.6666557976794983  0.5079260318130646
 
  0.00000000E+00  0.00000000E+00  0.00000000E+00
  0.00000000E+00  0.00000000E+00  0.00000000E+00
  0.00000000E+00  0.00000000E+00  0.00000000E+00
  0.00000000E+00  0.00000000E+00  0.00000000E+00
  0.00000000E+00  0.00000000E+00  0.00000000E+00
  0.00000000E+00  0.00000000E+00  0.00000000E+00
