Au5K1   [HEX,HEX,hP6] (STD_PRIM doi:10.1
   1.00000000000000     
     2.8973793317082359   -5.0184082113186275    0.0000000000000000
     2.8973371776718975    5.0183838736744004    0.0000000000000000
     0.0000000000000000    0.0000000000000000    4.5608454216358032
   5   1
Direct
  0.6666821874834531  0.3333643749668991  0.0000000000000000
  0.3333178125165469  0.6666356250331009 -0.0000000000000000
  0.0000000000000000  0.5000000000000000  0.5000000000000000
  0.5000000000000000  0.5000000000000000  0.5000000000000000
  0.5000000000000000  0.0000000000000000  0.5000000000000000
 -0.0000000000000000 -0.0000000000000000  0.0000000000000000
 
  0.00000000E+00  0.00000000E+00  0.00000000E+00
  0.00000000E+00  0.00000000E+00  0.00000000E+00
  0.00000000E+00  0.00000000E+00  0.00000000E+00
  0.00000000E+00  0.00000000E+00  0.00000000E+00
  0.00000000E+00  0.00000000E+00  0.00000000E+00
  0.00000000E+00  0.00000000E+00  0.00000000E+00
