In1P1 #186 - (In1P1_ICSD_180911) - In1P1
    1.000000000000000     
     2.0973274357832916   -3.6321507726576945    0.0000000000000000
     2.0973274357832916    3.6321507726576945    0.0000000000000000
     0.0000000000000000    0.0000000000000000    6.8832533464567316
   2   2
Direct
  0.3333242590205637  0.6666757409794364  0.9981422605227321
  0.6666757409794364  0.3333242590205637  0.4981422605227321
  0.3333094693906072  0.6666905306093929  0.3728577394772701
  0.6666905306093929  0.3333094693906072  0.8728577394772701
 
  0.00000000E+00  0.00000000E+00  0.00000000E+00
  0.00000000E+00  0.00000000E+00  0.00000000E+00
  0.00000000E+00  0.00000000E+00  0.00000000E+00
  0.00000000E+00  0.00000000E+00  0.00000000E+00
