Cd1Pd1   [TET,TET,tP2] (STD_PRIM doi:10.
   1.00000000000000     
     3.0652236008048099    0.0000000000000000   -0.0000000000000000
     0.0000000000000000    3.0652236008048099    0.0000000000000000
     0.0000000000000000    0.0000000000000000    3.6762840907994874
   1   1
Direct
  0.0000000000000000  0.0000000000000000  0.0000000000000000
  0.5000000000000000  0.5000000000000000  0.5000000000000000
 
  0.00000000E+00  0.00000000E+00  0.00000000E+00
  0.00000000E+00  0.00000000E+00  0.00000000E+00
