Dy1Pd1Sn1   [ORC,ORC,oP12] (STD_PRIM doi
   1.00000000000000     
     4.6689635571440027   -0.0000000000000000    0.0000000000000000
     0.0000000000000000    7.2326902144266381    0.0000000000000000
     0.0000000000000000    0.0000000000000000    7.9957466480960617
   4   4   4
Direct
  0.2500000000000000  0.9913040991459127  0.2927326416321347
  0.7500000000000000  0.5086959008540873  0.7927326416321346
  0.7500000000000000  0.0086959008540873  0.7072673583678654
  0.2500000000000000  0.4913040991459127  0.2072673583678653
  0.2500000000000000  0.2044681180200255  0.9165479399022063
  0.7500000000000000  0.2955318819799745  0.4165479399022063
  0.7500000000000000  0.7955318819799744  0.0834520600977937
  0.2500000000000000  0.7044681180200256  0.5834520600977937
  0.2500000000000000  0.3025869578015968  0.5876952337650123
  0.7500000000000000  0.1974130421984032  0.0876952337650123
  0.7500000000000000  0.6974130421984032  0.4123047662349877
  0.2500000000000000  0.8025869578015968  0.9123047662349877
 
  0.00000000E+00  0.00000000E+00  0.00000000E+00
  0.00000000E+00  0.00000000E+00  0.00000000E+00
  0.00000000E+00  0.00000000E+00  0.00000000E+00
  0.00000000E+00  0.00000000E+00  0.00000000E+00
  0.00000000E+00  0.00000000E+00  0.00000000E+00
  0.00000000E+00  0.00000000E+00  0.00000000E+00
  0.00000000E+00  0.00000000E+00  0.00000000E+00
  0.00000000E+00  0.00000000E+00  0.00000000E+00
  0.00000000E+00  0.00000000E+00  0.00000000E+00
  0.00000000E+00  0.00000000E+00  0.00000000E+00
  0.00000000E+00  0.00000000E+00  0.00000000E+00
  0.00000000E+00  0.00000000E+00  0.00000000E+00
