Au1Dy1In1   [HEX,HEX,hP9] (STD_PRIM doi:
   1.00000000000000     
     3.8870098812339733   -6.7324986038195114    0.0000000000000000
     3.8869591840498505    6.7324693337866099    0.0000000000000000
     0.0000000000000000    0.0000000000000000    3.9593753664499012
   3   3   3
Direct
  0.6666724706959913  0.3333449884149979  0.0000000000000000
  0.3333274822809934  0.6666550115850022  0.0000000000000000
  0.9999958680381122  0.0000000000000000  0.5000000000000000
  0.9999969592774065  0.4056960927519537  0.5000000000000000
  0.5943008665254528  0.5943039072480462  0.5000000000000000
  0.4057005995441426 -0.0000000000000000  0.5000000000000000
  0.0000088309434670  0.7396018052070121  0.0000000000000000
  0.2604070257364548  0.2603981947929879  0.0000000000000000
  0.7395898969579723  0.0000000000000000  0.0000000000000000
 
  0.00000000E+00  0.00000000E+00  0.00000000E+00
  0.00000000E+00  0.00000000E+00  0.00000000E+00
  0.00000000E+00  0.00000000E+00  0.00000000E+00
  0.00000000E+00  0.00000000E+00  0.00000000E+00
  0.00000000E+00  0.00000000E+00  0.00000000E+00
  0.00000000E+00  0.00000000E+00  0.00000000E+00
  0.00000000E+00  0.00000000E+00  0.00000000E+00
  0.00000000E+00  0.00000000E+00  0.00000000E+00
  0.00000000E+00  0.00000000E+00  0.00000000E+00
