Cd1Cl8Na6   [FCC,FCC,cF60] (STD_PRIM doi
   1.22474500000000     
    -0.0000000000000000    4.6309234837614976    4.6309234837614976
     4.6309234837614976    0.0000000000000000    4.6309234837614976
     4.6309234837614976    4.6309234837614976    0.0000000000000000
   1   8   6
Direct
  0.0000000000000000  0.0000000000000000 -0.0000000000000000
  0.7500000000000000  0.7500000000000000  0.7500000000000000
  0.2500000000000000  0.2500000000000000  0.2500000000000000
  0.2354991686552094  0.7645008313447906  0.7645008313447906
  0.7645008313447906  0.2354991686552094  0.2354991686552094
  0.2354991686552094  0.2354991686552094  0.7645008313447906
  0.7645008313447906  0.7645008313447906  0.2354991686552094
  0.2354991686552094  0.7645008313447906  0.2354991686552094
  0.7645008313447906  0.2354991686552094  0.7645008313447906
  0.5000000000000000 -0.0000000000000000  0.0000000000000000
  0.0000000000000000  0.5000000000000000  0.5000000000000000
  0.5000000000000000  0.5000000000000000 -0.0000000000000000
 -0.0000000000000000  0.0000000000000000  0.5000000000000000
  0.5000000000000000  0.0000000000000000  0.5000000000000000
 -0.0000000000000000  0.5000000000000000 -0.0000000000000000
 
  0.00000000E+00  0.00000000E+00  0.00000000E+00
  0.00000000E+00  0.00000000E+00  0.00000000E+00
  0.00000000E+00  0.00000000E+00  0.00000000E+00
  0.00000000E+00  0.00000000E+00  0.00000000E+00
  0.00000000E+00  0.00000000E+00  0.00000000E+00
  0.00000000E+00  0.00000000E+00  0.00000000E+00
  0.00000000E+00  0.00000000E+00  0.00000000E+00
  0.00000000E+00  0.00000000E+00  0.00000000E+00
  0.00000000E+00  0.00000000E+00  0.00000000E+00
  0.00000000E+00  0.00000000E+00  0.00000000E+00
  0.00000000E+00  0.00000000E+00  0.00000000E+00
  0.00000000E+00  0.00000000E+00  0.00000000E+00
  0.00000000E+00  0.00000000E+00  0.00000000E+00
  0.00000000E+00  0.00000000E+00  0.00000000E+00
  0.00000000E+00  0.00000000E+00  0.00000000E+00
