Ge2La1Pt2   [TET,TET,tP10] (STD_PRIM doi
   1.00000000000000     
     4.4551641976141552    0.0000000000000000    0.0000000000000000
     0.0000000000000000    4.4551641976141552    0.0000000000000000
     0.0000000000000000   -0.0000000000000000    9.9868560570178104
   4   2   4
Direct
  0.2500000000000000  0.7500000000000000  0.5000000000000000
  0.7500000000000000  0.2500000000000000  0.5000000000000000
  0.2500000000000000  0.2500000000000000  0.1267865492114267
  0.7500000000000000  0.7500000000000000  0.8732134507885733
  0.2500000000000000  0.2500000000000000  0.7474216059947426
  0.7500000000000000  0.7500000000000000  0.2525783940052573
  0.2500000000000000  0.7500000000000000  0.0000000000000000
  0.7500000000000000  0.2500000000000000  0.0000000000000000
  0.2500000000000000  0.2500000000000000  0.3775910936999058
  0.7500000000000000  0.7500000000000000  0.6224089063000942
 
  0.00000000E+00  0.00000000E+00  0.00000000E+00
  0.00000000E+00  0.00000000E+00  0.00000000E+00
  0.00000000E+00  0.00000000E+00  0.00000000E+00
  0.00000000E+00  0.00000000E+00  0.00000000E+00
  0.00000000E+00  0.00000000E+00  0.00000000E+00
  0.00000000E+00  0.00000000E+00  0.00000000E+00
  0.00000000E+00  0.00000000E+00  0.00000000E+00
  0.00000000E+00  0.00000000E+00  0.00000000E+00
  0.00000000E+00  0.00000000E+00  0.00000000E+00
  0.00000000E+00  0.00000000E+00  0.00000000E+00
