Ga1Ho3O6   [ORCC,ORCC,oS40] (STD_PRIM do
   1.00000000000000     
     4.4299298638612967   -5.5552515813498600    0.0000000000000000
     4.4299298638612967    5.5552515813498600    0.0000000000000000
     0.0000000000000000    0.0000000000000000    5.4155993511354685
   2   6  12
Direct
  0.8062551259832310  0.1937448740167689  0.9928282855667482
  0.1937448740167689  0.8062551259832310  0.4928282855667482
  0.7013965620302223  0.9118458289934945  0.5242205632315901
  0.2986034379697778  0.0881541710065055  0.0242205632315901
  0.9118458289934945  0.7013965620302223  0.0242205632315901
  0.0881541710065055  0.2986034379697778  0.5242205632315901
  0.6016112299217637  0.3983887700782363  0.5727131606220358
  0.3983887700782363  0.6016112299217637  0.0727131606220357
  0.5767198019862295  0.1062837092236980  0.8133058617238604
  0.4232801980137705  0.8937162907763020  0.3133058617238604
  0.1062837092236980  0.5767198019862295  0.3133058617238604
  0.8937162907763020  0.4232801980137705  0.8133058617238604
  0.6434962687577628  0.6773502832001963  0.7982574609388738
  0.3565037312422372  0.3226497167998038  0.2982574609388738
  0.6773502832001963  0.6434962687577628  0.2982574609388738
  0.3226497167998038  0.3565037312422372  0.7982574609388738
  0.9605813619980662  0.0394186380019338  0.8474314890029796
  0.0394186380019338  0.9605813619980662  0.3474314890029795
  0.7846877895764439  0.2153122104235561  0.3317192930195975
  0.2153122104235561  0.7846877895764439  0.8317192930195976
 
  0.00000000E+00  0.00000000E+00  0.00000000E+00
  0.00000000E+00  0.00000000E+00  0.00000000E+00
  0.00000000E+00  0.00000000E+00  0.00000000E+00
  0.00000000E+00  0.00000000E+00  0.00000000E+00
  0.00000000E+00  0.00000000E+00  0.00000000E+00
  0.00000000E+00  0.00000000E+00  0.00000000E+00
  0.00000000E+00  0.00000000E+00  0.00000000E+00
  0.00000000E+00  0.00000000E+00  0.00000000E+00
  0.00000000E+00  0.00000000E+00  0.00000000E+00
  0.00000000E+00  0.00000000E+00  0.00000000E+00
  0.00000000E+00  0.00000000E+00  0.00000000E+00
  0.00000000E+00  0.00000000E+00  0.00000000E+00
  0.00000000E+00  0.00000000E+00  0.00000000E+00
  0.00000000E+00  0.00000000E+00  0.00000000E+00
  0.00000000E+00  0.00000000E+00  0.00000000E+00
  0.00000000E+00  0.00000000E+00  0.00000000E+00
  0.00000000E+00  0.00000000E+00  0.00000000E+00
  0.00000000E+00  0.00000000E+00  0.00000000E+00
  0.00000000E+00  0.00000000E+00  0.00000000E+00
  0.00000000E+00  0.00000000E+00  0.00000000E+00
