O2Rb1Sc1   [HEX,HEX,hP8] (STD_PRIM doi:1
   1.00000000000000     
     1.6598753526356234   -2.8749884449962066   -0.0000000000000000
     1.6598679670505379    2.8749841809266692    0.0000000000000000
     0.0000000000000000    0.0000000000000000   12.9215750795899442
   4   2   2
Direct
  0.6666801689476692  0.3333603378953387  0.0847563602910882
  0.3333198310523307  0.6666396621046613  0.5847563602910882
  0.3333198310523307  0.6666396621046613  0.9152436397089118
  0.6666801689476692  0.3333603378953387  0.4152436397089118
  0.3333072731886473  0.6666145463772946  0.2500000000000000
  0.6666927268113527  0.3333854536227055  0.7500000000000000
  0.0000000000000000  0.0000000000000000  0.0000000000000000
  0.0000000000000000  0.0000000000000000  0.5000000000000000
 
  0.00000000E+00  0.00000000E+00  0.00000000E+00
  0.00000000E+00  0.00000000E+00  0.00000000E+00
  0.00000000E+00  0.00000000E+00  0.00000000E+00
  0.00000000E+00  0.00000000E+00  0.00000000E+00
  0.00000000E+00  0.00000000E+00  0.00000000E+00
  0.00000000E+00  0.00000000E+00  0.00000000E+00
  0.00000000E+00  0.00000000E+00  0.00000000E+00
  0.00000000E+00  0.00000000E+00  0.00000000E+00
