C1Dy3Sn1   [CUB,CUB,cP5] (STD_PRIM doi:1
   1.00000000000000     
     4.8956029495944424    0.0000000000000000    0.0000000000000000
     0.0000000000000000    4.8956029495944424    0.0000000000000000
     0.0000000000000000    0.0000000000000000    4.8956029495944424
   1   3   1
Direct
  0.5000000000000000  0.5000000000000000  0.5000000000000000
  0.0000000000000000  0.5000000000000000  0.5000000000000000
  0.5000000000000000  0.0000000000000000  0.5000000000000000
  0.5000000000000000  0.5000000000000000  0.0000000000000000
  0.0000000000000000  0.0000000000000000  0.0000000000000000
 
  0.00000000E+00  0.00000000E+00  0.00000000E+00
  0.00000000E+00  0.00000000E+00  0.00000000E+00
  0.00000000E+00  0.00000000E+00  0.00000000E+00
  0.00000000E+00  0.00000000E+00  0.00000000E+00
  0.00000000E+00  0.00000000E+00  0.00000000E+00
