Nb1Rh1Si1   [ORC,ORC,oP12] (STD_PRIM doi
   1.00000000000000     
     3.7618073057316881   -0.0000000000000000    0.0000000000000000
     0.0000000000000000    6.4429481906980506    0.0000000000000000
     0.0000000000000000    0.0000000000000000    7.3440955566015731
   4   4   4
Direct
  0.2500000000000000  0.0247582998784657  0.8261618022357397
  0.7500000000000000  0.4752417001215343  0.3261618022357395
  0.7500000000000000  0.9752417001215343  0.1738381977642604
  0.2500000000000000  0.5247582998784657  0.6738381977642603
  0.2500000000000000  0.1445926517924811  0.4366751339068016
  0.7500000000000000  0.3554073482075188  0.9366751339068016
  0.7500000000000000  0.8554073482075188  0.5633248660931984
  0.2500000000000000  0.6445926517924812  0.0633248660931984
  0.2500000000000000  0.7695694179606447  0.3762336058938646
  0.7500000000000000  0.7304305820393553  0.8762336058938646
  0.7500000000000000  0.2304305820393552  0.6237663941061354
  0.2500000000000000  0.2695694179606448  0.1237663941061354
 
  0.00000000E+00  0.00000000E+00  0.00000000E+00
  0.00000000E+00  0.00000000E+00  0.00000000E+00
  0.00000000E+00  0.00000000E+00  0.00000000E+00
  0.00000000E+00  0.00000000E+00  0.00000000E+00
  0.00000000E+00  0.00000000E+00  0.00000000E+00
  0.00000000E+00  0.00000000E+00  0.00000000E+00
  0.00000000E+00  0.00000000E+00  0.00000000E+00
  0.00000000E+00  0.00000000E+00  0.00000000E+00
  0.00000000E+00  0.00000000E+00  0.00000000E+00
  0.00000000E+00  0.00000000E+00  0.00000000E+00
  0.00000000E+00  0.00000000E+00  0.00000000E+00
  0.00000000E+00  0.00000000E+00  0.00000000E+00
