La2O2Te1   [BCT,BCT2,tI10] (STD_PRIM doi
   1.00000000000000     
    -2.0917162384354588    2.0917162384354588    6.6820766134799428
     2.0917162384354588   -2.0917162384354588    6.6820766134799428
     2.0917162384354588    2.0917162384354588   -6.6820766134799428
   2   2   1
Direct
  0.3412782169791376  0.3412782169791376  0.0000000000000000
  0.6587217830208624  0.6587217830208624  0.0000000000000000
  0.2500000000000000  0.7500000000000000  0.5000000000000000
  0.7500000000000000  0.2500000000000000  0.5000000000000000
 -0.0000000000000000  0.0000000000000000  0.0000000000000000
 
  0.00000000E+00  0.00000000E+00  0.00000000E+00
  0.00000000E+00  0.00000000E+00  0.00000000E+00
  0.00000000E+00  0.00000000E+00  0.00000000E+00
  0.00000000E+00  0.00000000E+00  0.00000000E+00
  0.00000000E+00  0.00000000E+00  0.00000000E+00
