Al1Ti1   [TET,TET,tP2] (STD_PRIM doi:10.
   1.00000000000000     
     2.8512122076269422    0.0000000000000000    0.0000000000000000
     0.0000000000000000    2.8512122076269422   -0.0000000000000000
     0.0000000000000000    0.0000000000000000    4.2096697222073951
   1   1
Direct
  0.0000000000000000  0.0000000000000000  0.0000000000000000
  0.5000000000000000  0.5000000000000000  0.5000000000000000
 
  0.00000000E+00  0.00000000E+00  0.00000000E+00
  0.00000000E+00  0.00000000E+00  0.00000000E+00
