Na3Sb1Se4   [BCC,BCC,cI16] (STD_PRIM doi
   1.00000000000000     
    -3.7757992939038085    3.7757992939038085    3.7757992939038085
     3.7757992939038085   -3.7757992939038085    3.7757992939038085
     3.7757992939038085    3.7757992939038085   -3.7757992939038085
   3   1   4
Direct
 -0.0000000000000000  0.5000000000000000  0.5000000000000000
  0.5000000000000000  0.0000000000000000  0.5000000000000000
  0.5000000000000000  0.5000000000000000  0.0000000000000000
 -0.0000000000000000 -0.0000000000000000 -0.0000000000000000
  0.0000000000000000  0.6148190347865159  0.0000000000000000
  0.6148190347865159 -0.0000000000000000  0.0000000000000000
  0.3851809652134842  0.3851809652134842  0.3851809652134842
  0.0000000000000000 -0.0000000000000000  0.6148190347865159
 
  0.00000000E+00  0.00000000E+00  0.00000000E+00
  0.00000000E+00  0.00000000E+00  0.00000000E+00
  0.00000000E+00  0.00000000E+00  0.00000000E+00
  0.00000000E+00  0.00000000E+00  0.00000000E+00
  0.00000000E+00  0.00000000E+00  0.00000000E+00
  0.00000000E+00  0.00000000E+00  0.00000000E+00
  0.00000000E+00  0.00000000E+00  0.00000000E+00
  0.00000000E+00  0.00000000E+00  0.00000000E+00
