Er1Ir1Sn1 #189 - (Er1Ir1Sn1_ICSD_630724)
    1.000000000000000     
     3.7714753638210605   -6.5323819100139255    0.0000000000000000
     3.7714753638210605    6.5323819100139255    0.0000000000000000
     0.0000000000000000    0.0000000000000000    3.8395937126158319
   3   3   3
Direct
  0.5960308065636357  0.0000009497641078  0.5000000000000000
  0.0000009497641078  0.5960308065636357  0.5000000000000000
  0.4039694437604098  0.4039694437604098  0.5000000000000000
  0.3333334745168707  0.6666689361488534  0.0000000000000000
  0.6666689361488534  0.3333334745168707  0.0000000000000000
  0.9999962096307272  0.9999962096307272  0.5000000000000000
  0.2632201319693084  0.0000022278115017  0.0000000000000000
  0.0000022278115017  0.2632201319693084  0.0000000000000000
  0.7367778198345852  0.7367778198345852  0.0000000000000000
 
  0.00000000E+00  0.00000000E+00  0.00000000E+00
  0.00000000E+00  0.00000000E+00  0.00000000E+00
  0.00000000E+00  0.00000000E+00  0.00000000E+00
  0.00000000E+00  0.00000000E+00  0.00000000E+00
  0.00000000E+00  0.00000000E+00  0.00000000E+00
  0.00000000E+00  0.00000000E+00  0.00000000E+00
  0.00000000E+00  0.00000000E+00  0.00000000E+00
  0.00000000E+00  0.00000000E+00  0.00000000E+00
  0.00000000E+00  0.00000000E+00  0.00000000E+00
