F6Sn2   [FCC,FCC,cF32] (STD_PRIM doi:10.
   1.22474500000000     
     0.0000000000000000    3.6208786538960616    3.6208786538960616
     3.6208786538960616   -0.0000000000000000    3.6208786538960616
     3.6208786538960616    3.6208786538960616   -0.0000000000000000
   6   2
Direct
  0.7309148716398760  0.2690851283601239  0.2690851283601239
  0.2690851283601239  0.7309148716398760  0.7309148716398760
  0.7309148716398760  0.2690851283601239  0.7309148716398760
  0.2690851283601239  0.7309148716398760  0.2690851283601239
  0.7309148716398760  0.7309148716398760  0.2690851283601239
  0.2690851283601239  0.2690851283601239  0.7309148716398760
 -0.0000000000000000  0.0000000000000000 -0.0000000000000000
  0.5000000000000000  0.5000000000000000  0.5000000000000000
 
  0.00000000E+00  0.00000000E+00  0.00000000E+00
  0.00000000E+00  0.00000000E+00  0.00000000E+00
  0.00000000E+00  0.00000000E+00  0.00000000E+00
  0.00000000E+00  0.00000000E+00  0.00000000E+00
  0.00000000E+00  0.00000000E+00  0.00000000E+00
  0.00000000E+00  0.00000000E+00  0.00000000E+00
  0.00000000E+00  0.00000000E+00  0.00000000E+00
  0.00000000E+00  0.00000000E+00  0.00000000E+00
