Al1Sb1 #205 - (Al1Sb1_ICSD_41994) - Al1S
   1.00000000000000     
     7.6095951319152935    0.0000000000000000    0.0000000000000000
     0.0000000000000000    7.6095951319152935    0.0000000000000000
     0.0000000000000001    0.0000000000000000    7.6095951319152935
   8   8
Direct
  0.6567167665602819  0.6567167665602819  0.3432832334397181
  0.8432832334397181  0.3432832334397181  0.8432832334397181
  0.3432832334397181  0.1567167665602819  0.1567167665602819
  0.1567167665602819  0.8432832334397181  0.6567167665602819
  0.3432832334397181  0.3432832334397181  0.6567167665602819
  0.1567167665602819  0.6567167665602819  0.1567167665602819
  0.6567167665602819  0.8432832334397181  0.8432832334397181
  0.8432832334397181  0.1567167665602819  0.3432832334397181
  0.8589429458667768  0.8589429458667768  0.1410570541332232
  0.6410570541332232  0.1410570541332232  0.6410570541332232
  0.1410570541332232  0.3589429458667768  0.3589429458667768
  0.3589429458667768  0.6410570541332232  0.8589429458667768
  0.1410570541332232  0.1410570541332232  0.8589429458667768
  0.3589429458667768  0.8589429458667768  0.3589429458667768
  0.8589429458667768  0.6410570541332232  0.6410570541332232
  0.6410570541332232  0.3589429458667768  0.1410570541332232
 
  0.00000000E+00  0.00000000E+00  0.00000000E+00
  0.00000000E+00  0.00000000E+00  0.00000000E+00
  0.00000000E+00  0.00000000E+00  0.00000000E+00
  0.00000000E+00  0.00000000E+00  0.00000000E+00
  0.00000000E+00  0.00000000E+00  0.00000000E+00
  0.00000000E+00  0.00000000E+00  0.00000000E+00
  0.00000000E+00  0.00000000E+00  0.00000000E+00
  0.00000000E+00  0.00000000E+00  0.00000000E+00
  0.00000000E+00  0.00000000E+00  0.00000000E+00
  0.00000000E+00  0.00000000E+00  0.00000000E+00
  0.00000000E+00  0.00000000E+00  0.00000000E+00
  0.00000000E+00  0.00000000E+00  0.00000000E+00
  0.00000000E+00  0.00000000E+00  0.00000000E+00
  0.00000000E+00  0.00000000E+00  0.00000000E+00
  0.00000000E+00  0.00000000E+00  0.00000000E+00
  0.00000000E+00  0.00000000E+00  0.00000000E+00
