Ba1Te2   [BCT,BCT2,tI12] (STD_PRIM doi:1
   1.00000000000000     
    -3.6198795783949795    3.6198795783949795    4.5715940977478526
     3.6198795783949795   -3.6198795783949795    4.5715940977478526
     3.6198795783949795    3.6198795783949795   -4.5715940977478526
   2   4
Direct
  0.7500000000000000  0.7500000000000000 -0.0000000000000000
  0.2500000000000000  0.2500000000000000 -0.0000000000000000
  0.1381016426780779  0.6381016426780778  0.7762032853561558
  0.8618983573219222  0.3618983573219221  0.2237967146438442
  0.3618983573219221  0.1381016426780779  0.5000000000000000
  0.6381016426780778  0.8618983573219222  0.5000000000000000
 
  0.00000000E+00  0.00000000E+00  0.00000000E+00
  0.00000000E+00  0.00000000E+00  0.00000000E+00
  0.00000000E+00  0.00000000E+00  0.00000000E+00
  0.00000000E+00  0.00000000E+00  0.00000000E+00
  0.00000000E+00  0.00000000E+00  0.00000000E+00
  0.00000000E+00  0.00000000E+00  0.00000000E+00
