B6Sr1   [CUB,CUB,cP7] (STD_PRIM doi:10.1
   1.00000000000000     
     4.1981001797778896    0.0000000000000000    0.0000000000000000
     0.0000000000000000    4.1981001797778896    0.0000000000000000
     0.0000000000000000    0.0000000000000000    4.1981001797778896
   6   1
Direct
  0.2032108808506763  0.5000000000000000  0.5000000000000000
  0.7967891191493237  0.5000000000000000  0.5000000000000000
  0.5000000000000000  0.2032108808506763  0.5000000000000000
  0.5000000000000000  0.7967891191493237  0.5000000000000000
  0.5000000000000000  0.5000000000000000  0.2032108808506763
  0.5000000000000000  0.5000000000000000  0.7967891191493237
  0.0000000000000000  0.0000000000000000  0.0000000000000000
 
  0.00000000E+00  0.00000000E+00  0.00000000E+00
  0.00000000E+00  0.00000000E+00  0.00000000E+00
  0.00000000E+00  0.00000000E+00  0.00000000E+00
  0.00000000E+00  0.00000000E+00  0.00000000E+00
  0.00000000E+00  0.00000000E+00  0.00000000E+00
  0.00000000E+00  0.00000000E+00  0.00000000E+00
  0.00000000E+00  0.00000000E+00  0.00000000E+00
