Hg2Y1   [HEX,HEX,hP3] (STD_PRIM doi:10.1
   1.00000000000000     
     2.4720494543677747   -4.2817152537879108    0.0000000000000000
     2.4718667005961867    4.2816097408486886    0.0000000000000000
     0.0000000000000000    0.0000000000000000    3.4555821836943736
   2   1
Direct
  0.6666644514403092  0.3333289028806182  0.5000000000000000
  0.3333355485596909  0.6666710971193819  0.5000000000000000
  0.0000000000000000  0.0000000000000000  0.0000000000000000
 
  0.00000000E+00  0.00000000E+00  0.00000000E+00
  0.00000000E+00  0.00000000E+00  0.00000000E+00
  0.00000000E+00  0.00000000E+00  0.00000000E+00
