Al5C3N1   [HEX,HEX,hP18] (STD_PRIM doi:1
   1.00000000000000     
     1.6725252427979278   -2.8968659691526804    0.0000000000000000
     1.6725252427979278    2.8968659691526804    0.0000000000000000
     0.0000000000000000    0.0000000000000000   20.9687542616536220
  10   6   2
Direct
  0.9999914449659735  0.0000085550340265  0.1521178314301720
  0.0000085550340265  0.9999914449659735  0.6521178314301720
  0.3333296843289103  0.6666703156710897  0.0463602651423180
  0.6666703156710897  0.3333296843289103  0.5463602651423181
  0.3333302624848642  0.6666697375151358  0.4507680290258697
  0.6666697375151358  0.3333302624848642  0.9507680290258697
  0.9999910676723701  0.0000089323276298  0.3449857183898108
  0.0000089323276298  0.9999910676723701  0.8449857183898107
  0.3333213595725023  0.6666786404274978  0.2485086920348652
  0.6666786404274978  0.3333213595725023  0.7485086920348651
  0.3333208093337986  0.6666791906662014  0.1384664700741604
  0.6666791906662014  0.3333208093337986  0.6384664700741604
  0.9999997914565624  0.0000002085434376  0.9985801309621778
  0.0000002085434376  0.9999997914565624  0.4985801309621778
  0.3333208489045069  0.6666791510954930  0.3586773040725181
  0.6666791510954930  0.3333208489045069  0.8586773040725181
  0.9999892817025404  0.0000107182974595  0.2485355588681099
  0.0000107182974595  0.9999892817025404  0.7485355588681099
 
  0.00000000E+00  0.00000000E+00  0.00000000E+00
  0.00000000E+00  0.00000000E+00  0.00000000E+00
  0.00000000E+00  0.00000000E+00  0.00000000E+00
  0.00000000E+00  0.00000000E+00  0.00000000E+00
  0.00000000E+00  0.00000000E+00  0.00000000E+00
  0.00000000E+00  0.00000000E+00  0.00000000E+00
  0.00000000E+00  0.00000000E+00  0.00000000E+00
  0.00000000E+00  0.00000000E+00  0.00000000E+00
  0.00000000E+00  0.00000000E+00  0.00000000E+00
  0.00000000E+00  0.00000000E+00  0.00000000E+00
  0.00000000E+00  0.00000000E+00  0.00000000E+00
  0.00000000E+00  0.00000000E+00  0.00000000E+00
  0.00000000E+00  0.00000000E+00  0.00000000E+00
  0.00000000E+00  0.00000000E+00  0.00000000E+00
  0.00000000E+00  0.00000000E+00  0.00000000E+00
  0.00000000E+00  0.00000000E+00  0.00000000E+00
  0.00000000E+00  0.00000000E+00  0.00000000E+00
  0.00000000E+00  0.00000000E+00  0.00000000E+00
