Mg1O1   [FCC,FCC,cF8] (STD_PRIM doi:10.1
   1.24482600000000     
    -0.0000000000000000    1.7091224654381538    1.7091224654381538
     1.7091224654381538    0.0000000000000000    1.7091224654381538
     1.7091224654381538    1.7091224654381538   -0.0000000000000000
   1   1
Direct
 -0.0000000000000000  0.0000000000000000  0.0000000000000000
  0.5000000000000000  0.5000000000000000  0.5000000000000000
 
  0.00000000E+00  0.00000000E+00  0.00000000E+00
  0.00000000E+00  0.00000000E+00  0.00000000E+00
