Si2W1   [HEX,HEX,hP9] (STD_PRIM doi:10.1
   1.00000000000000     
     2.3149537974803360   -4.0096175944104555    0.0000000000000000
     2.3149537974803360    4.0096175944104555    0.0000000000000000
     0.0000000000000000    0.0000000000000000    6.6614554416627652
   6   3
Direct
  0.3264202128821054  0.1632101064410492  0.5000000000000000
  0.8367898935589437  0.1632101064410492  0.1666666666666714
  0.8367898935589437  0.6735797871178946  0.8333333333333286
  0.6735797871178946  0.8367898935589437  0.5000000000000000
  0.1632101064410492  0.8367898935589437  0.1666666666666714
  0.1632101064410492  0.3264202128821054  0.8333333333333286
  0.0000000000000000  0.5000000000000000  0.5000000000000000
  0.5000000000000000  0.5000000000000000  0.1666666666666714
  0.5000000000000000  0.0000000000000000  0.8333333333333286
 
  0.00000000E+00  0.00000000E+00  0.00000000E+00
  0.00000000E+00  0.00000000E+00  0.00000000E+00
  0.00000000E+00  0.00000000E+00  0.00000000E+00
  0.00000000E+00  0.00000000E+00  0.00000000E+00
  0.00000000E+00  0.00000000E+00  0.00000000E+00
  0.00000000E+00  0.00000000E+00  0.00000000E+00
  0.00000000E+00  0.00000000E+00  0.00000000E+00
  0.00000000E+00  0.00000000E+00  0.00000000E+00
  0.00000000E+00  0.00000000E+00  0.00000000E+00
