Rh1Sb2   [MCL,MCL,mP12] (STD_PRIM doi:10
   1.00000000000000     
     6.6467563362341338    0.0000000000000000    0.0000000000000000
     0.0000000000000000    6.7120447228990736    0.0036411348219061
     0.0000000000000000    3.0816781666488180    6.0227398633210054
   4   8
Direct
  0.9996158144322148  0.7319000763128706  0.2810038641115905
  0.4996158144322148  0.2680999236871294  0.2189961358884095
  0.0003841855677852  0.2680999236871294  0.7189961358884095
  0.5003841855677852  0.7319000763128706  0.7810038641115905
  0.3612460520270998  0.6554167484425962  0.1719400898414283
  0.8612460520270997  0.3445832515574038  0.3280599101585716
  0.6387539479729003  0.3445832515574038  0.8280599101585716
  0.1387539479729003  0.6554167484425962  0.6719400898414284
  0.6373270167308349  0.8484726267449514  0.3677340695295557
  0.1373270167308349  0.1515273732550487  0.1322659304704443
  0.3626729832691651  0.1515273732550487  0.6322659304704443
  0.8626729832691651  0.8484726267449514  0.8677340695295557
 
  0.00000000E+00  0.00000000E+00  0.00000000E+00
  0.00000000E+00  0.00000000E+00  0.00000000E+00
  0.00000000E+00  0.00000000E+00  0.00000000E+00
  0.00000000E+00  0.00000000E+00  0.00000000E+00
  0.00000000E+00  0.00000000E+00  0.00000000E+00
  0.00000000E+00  0.00000000E+00  0.00000000E+00
  0.00000000E+00  0.00000000E+00  0.00000000E+00
  0.00000000E+00  0.00000000E+00  0.00000000E+00
  0.00000000E+00  0.00000000E+00  0.00000000E+00
  0.00000000E+00  0.00000000E+00  0.00000000E+00
  0.00000000E+00  0.00000000E+00  0.00000000E+00
  0.00000000E+00  0.00000000E+00  0.00000000E+00
