La1O3Y1   [ORC,ORC,oP20] (STD_PRIM doi:1
   1.00000000000000     
     5.9638700045130486    0.0000000000000000    0.0000000000000000
     0.0000000000000000    6.1620440382297099    0.0000000000000000
     0.0000000000000000    0.0000000000000000    8.6197833257055141
   4  12   4
Direct
  0.5122619317030150  0.0474158098819206  0.4802285760502526
  0.4877380682969779  0.9525841901180794  0.9802285760502526
  0.9877380682969850  0.5474158098819206  0.4802285760502526
  0.0122619317030222  0.4525841901180795  0.9802285760502526
  0.8204046512444514  0.3266151828295769  0.2791238705060264
  0.1795953487555486  0.6733848171704230  0.7791238705060266
  0.6795953487555486  0.8266151828295770  0.2791238705060264
  0.3204046512444513  0.1733848171704231  0.7791238705060266
  0.8003962930965294  0.2904317102767342  0.6482795282687761
  0.1996037069034778  0.7095682897232658  0.1482795282687760
  0.6996037069034706  0.7904317102767342  0.6482795282687761
  0.3003962930965293  0.2095682897232658  0.1482795282687760
  0.8752659602191473  0.0605327907378360  0.9714379635228143
  0.1247340397808527  0.9394672092621640  0.4714379635228144
  0.6247340397808527  0.5605327907378360  0.9714379635228143
  0.3752659602191473  0.4394672092621640  0.4714379635228144
  0.9998414597581701  0.0063298603973682  0.2242300616521277
  0.0001585402418299  0.9936701396026317  0.7242300616521278
  0.5001585402418299  0.5063298603973683  0.2242300616521277
  0.4998414597581702  0.4936701396026318  0.7242300616521278
 
  0.00000000E+00  0.00000000E+00  0.00000000E+00
  0.00000000E+00  0.00000000E+00  0.00000000E+00
  0.00000000E+00  0.00000000E+00  0.00000000E+00
  0.00000000E+00  0.00000000E+00  0.00000000E+00
  0.00000000E+00  0.00000000E+00  0.00000000E+00
  0.00000000E+00  0.00000000E+00  0.00000000E+00
  0.00000000E+00  0.00000000E+00  0.00000000E+00
  0.00000000E+00  0.00000000E+00  0.00000000E+00
  0.00000000E+00  0.00000000E+00  0.00000000E+00
  0.00000000E+00  0.00000000E+00  0.00000000E+00
  0.00000000E+00  0.00000000E+00  0.00000000E+00
  0.00000000E+00  0.00000000E+00  0.00000000E+00
  0.00000000E+00  0.00000000E+00  0.00000000E+00
  0.00000000E+00  0.00000000E+00  0.00000000E+00
  0.00000000E+00  0.00000000E+00  0.00000000E+00
  0.00000000E+00  0.00000000E+00  0.00000000E+00
  0.00000000E+00  0.00000000E+00  0.00000000E+00
  0.00000000E+00  0.00000000E+00  0.00000000E+00
  0.00000000E+00  0.00000000E+00  0.00000000E+00
  0.00000000E+00  0.00000000E+00  0.00000000E+00
