Ir1Sb3   [BCC,BCC,cI32] (STD_PRIM doi:10
   1.00000000000000     
    -4.6804497717097844    4.6804497717097844    4.6804497717097844
     4.6804497717097844   -4.6804497717097844    4.6804497717097844
     4.6804497717097844    4.6804497717097844   -4.6804497717097844
   4  12
Direct
  0.5000000000000000 -0.0000000000000000  0.0000000000000000
  0.5000000000000000  0.5000000000000000  0.5000000000000000
  0.0000000000000000  0.0000000000000000  0.5000000000000000
 -0.0000000000000000  0.5000000000000000 -0.0000000000000000
  0.3396321732802680  0.8457279985623600  0.1853601718426280
  0.6603678267197319  0.8457279985623600  0.5060958252820850
  0.3396321732802680  0.1542720014376400  0.4939041747179150
  0.6603678267197319  0.1542720014376400  0.8146398281573720
  0.1542720014376400  0.8146398281573720  0.6603678267197319
  0.1542720014376400  0.4939041747179150  0.3396321732802680
  0.8457279985623600  0.5060958252820850  0.6603678267197319
  0.8457279985623600  0.1853601718426280  0.3396321732802680
  0.4939041747179150  0.3396321732802680  0.1542720014376400
  0.8146398281573720  0.6603678267197319  0.1542720014376400
  0.1853601718426280  0.3396321732802680  0.8457279985623600
  0.5060958252820850  0.6603678267197319  0.8457279985623600
 
  0.00000000E+00  0.00000000E+00  0.00000000E+00
  0.00000000E+00  0.00000000E+00  0.00000000E+00
  0.00000000E+00  0.00000000E+00  0.00000000E+00
  0.00000000E+00  0.00000000E+00  0.00000000E+00
  0.00000000E+00  0.00000000E+00  0.00000000E+00
  0.00000000E+00  0.00000000E+00  0.00000000E+00
  0.00000000E+00  0.00000000E+00  0.00000000E+00
  0.00000000E+00  0.00000000E+00  0.00000000E+00
  0.00000000E+00  0.00000000E+00  0.00000000E+00
  0.00000000E+00  0.00000000E+00  0.00000000E+00
  0.00000000E+00  0.00000000E+00  0.00000000E+00
  0.00000000E+00  0.00000000E+00  0.00000000E+00
  0.00000000E+00  0.00000000E+00  0.00000000E+00
  0.00000000E+00  0.00000000E+00  0.00000000E+00
  0.00000000E+00  0.00000000E+00  0.00000000E+00
  0.00000000E+00  0.00000000E+00  0.00000000E+00
