B1Ni6Si2   [HEX,HEX,hP9] (STD_PRIM doi:1
   1.00000000000000     
     3.0323946596350728   -5.2523139653943662    0.0000000000000000
     3.0324399928657657    5.2523401385473099    0.0000000000000000
     0.0000000000000000    0.0000000000000000    2.8560880431308391
   1   6   2
Direct
  0.0000000000000000  0.9999166839297418  0.5000000000000000
  0.7568983828497795  0.7569178633403412  0.0000000000000000
  0.2431016171502204  0.0000194804905616  0.0000000000000000
  0.0000000000000000  0.2433167800190351  0.0000000000000000
  0.3918335838637674  0.3918902478587216  0.5000000000000000
  0.6081664161362327  0.0000566639949542  0.5000000000000000
 -0.0000000000000000  0.6079048008801848  0.5000000000000000
  0.3333448860853388  0.6666611827858993  0.0000000000000000
  0.6666551139146613  0.3333162967005605  0.0000000000000000
 
  0.00000000E+00  0.00000000E+00  0.00000000E+00
  0.00000000E+00  0.00000000E+00  0.00000000E+00
  0.00000000E+00  0.00000000E+00  0.00000000E+00
  0.00000000E+00  0.00000000E+00  0.00000000E+00
  0.00000000E+00  0.00000000E+00  0.00000000E+00
  0.00000000E+00  0.00000000E+00  0.00000000E+00
  0.00000000E+00  0.00000000E+00  0.00000000E+00
  0.00000000E+00  0.00000000E+00  0.00000000E+00
  0.00000000E+00  0.00000000E+00  0.00000000E+00
