Al7Cu16Zr6   [FCC,FCC,cF116] (STD_PRIM d
   1.22474500000000     
     0.0000000000000000    4.8784112596105116    4.8784112596105116
     4.8784112596105116    0.0000000000000000    4.8784112596105116
     4.8784112596105116    4.8784112596105116   -0.0000000000000000
   7  16   6
Direct
 -0.0000000000000000  0.0000000000000000  0.0000000000000000
  0.5000000000000000  0.0000000000000000 -0.0000000000000000
 -0.0000000000000000  0.5000000000000000  0.5000000000000000
  0.5000000000000000  0.5000000000000000  0.0000000000000000
  0.0000000000000000  0.0000000000000000  0.5000000000000000
  0.5000000000000000 -0.0000000000000000  0.5000000000000000
  0.0000000000000000  0.5000000000000000  0.0000000000000000
  0.3581309950178698  0.8806230016607076  0.8806230016607076
  0.8806230016607076  0.8806230016607076  0.3581309950178698
  0.8806230016607076  0.3581309950178698  0.8806230016607076
  0.8806230016607076  0.8806230016607076  0.8806230016607076
  0.1193769983392923  0.1193769983392923  0.6418690049821301
  0.6418690049821301  0.1193769983392923  0.1193769983392923
  0.1193769983392923  0.6418690049821301  0.1193769983392923
  0.1193769983392923  0.1193769983392923  0.1193769983392923
  0.9865060758221582  0.6711646413926117  0.6711646413926117
  0.6711646413926117  0.6711646413926117  0.9865060758221582
  0.6711646413926117  0.9865060758221582  0.6711646413926117
  0.6711646413926117  0.6711646413926117  0.6711646413926117
  0.3288353586073885  0.3288353586073885  0.0134939241778417
  0.0134939241778417  0.3288353586073885  0.3288353586073885
  0.3288353586073885  0.0134939241778417  0.3288353586073885
  0.3288353586073885  0.3288353586073885  0.3288353586073885
  0.2962044172720213  0.7037955827279786  0.7037955827279786
  0.7037955827279786  0.2962044172720213  0.2962044172720213
  0.2962044172720213  0.2962044172720213  0.7037955827279786
  0.7037955827279786  0.7037955827279786  0.2962044172720213
  0.2962044172720213  0.7037955827279786  0.2962044172720213
  0.7037955827279786  0.2962044172720213  0.7037955827279786
 
  0.00000000E+00  0.00000000E+00  0.00000000E+00
  0.00000000E+00  0.00000000E+00  0.00000000E+00
  0.00000000E+00  0.00000000E+00  0.00000000E+00
  0.00000000E+00  0.00000000E+00  0.00000000E+00
  0.00000000E+00  0.00000000E+00  0.00000000E+00
  0.00000000E+00  0.00000000E+00  0.00000000E+00
  0.00000000E+00  0.00000000E+00  0.00000000E+00
  0.00000000E+00  0.00000000E+00  0.00000000E+00
  0.00000000E+00  0.00000000E+00  0.00000000E+00
  0.00000000E+00  0.00000000E+00  0.00000000E+00
  0.00000000E+00  0.00000000E+00  0.00000000E+00
  0.00000000E+00  0.00000000E+00  0.00000000E+00
  0.00000000E+00  0.00000000E+00  0.00000000E+00
  0.00000000E+00  0.00000000E+00  0.00000000E+00
  0.00000000E+00  0.00000000E+00  0.00000000E+00
  0.00000000E+00  0.00000000E+00  0.00000000E+00
  0.00000000E+00  0.00000000E+00  0.00000000E+00
  0.00000000E+00  0.00000000E+00  0.00000000E+00
  0.00000000E+00  0.00000000E+00  0.00000000E+00
  0.00000000E+00  0.00000000E+00  0.00000000E+00
  0.00000000E+00  0.00000000E+00  0.00000000E+00
  0.00000000E+00  0.00000000E+00  0.00000000E+00
  0.00000000E+00  0.00000000E+00  0.00000000E+00
  0.00000000E+00  0.00000000E+00  0.00000000E+00
  0.00000000E+00  0.00000000E+00  0.00000000E+00
  0.00000000E+00  0.00000000E+00  0.00000000E+00
  0.00000000E+00  0.00000000E+00  0.00000000E+00
  0.00000000E+00  0.00000000E+00  0.00000000E+00
  0.00000000E+00  0.00000000E+00  0.00000000E+00
