P3Tc2   [TRI,TRI1b,aP20] (STD_PRIM doi:1
   1.00000000000000     
     6.3088972985659968    0.0013807284030634    0.0025038880514127
    -1.5759252472443788    6.1812070128080716    0.0071344186269815
    -1.5739047719322519   -1.2017532578038095    7.4816424495755953
  12   8
Direct
  0.5366236726756802  0.1814515540495412  0.9619108701442732
  0.4633763273243198  0.8185484459504588  0.0380891298557268
  0.0331403491384479  0.1777258024432904  0.9569674916909203
  0.9668596508615521  0.8222741975567097  0.0430325083090797
  0.6288945941246151  0.8497304100828144  0.6769282509113916
  0.3711054058753848  0.1502695899171857  0.3230717490886083
  0.1389571135222299  0.8653407456455335  0.6807701209081726
  0.8610428864777702  0.1346592543544664  0.3192298790918274
  0.7657269652866526  0.4378893882669954  0.6203079947967944
  0.2342730347133474  0.5621106117330045  0.3796920052032055
  0.2635859268951411  0.4229690664436732  0.6362084803845950
  0.7364140731048590  0.5770309335563268  0.3637915196154051
  0.9228367576983283  0.1318945758691604  0.6318999031155396
  0.0771632423016717  0.8681054241308397  0.3681000968844604
  0.4622654400167831  0.1390013038705951  0.6379802924063285
  0.5377345599832170  0.8609986961294049  0.3620197075936715
  0.6190254357709533  0.5857744275886948  0.8592153417806822
  0.3809745642290468  0.4142255724113051  0.1407846582193178
  0.1017048116293333  0.5871440666584702  0.8544225899639581
  0.8982951883706668  0.4128559333415298  0.1455774100360347
 
  0.00000000E+00  0.00000000E+00  0.00000000E+00
  0.00000000E+00  0.00000000E+00  0.00000000E+00
  0.00000000E+00  0.00000000E+00  0.00000000E+00
  0.00000000E+00  0.00000000E+00  0.00000000E+00
  0.00000000E+00  0.00000000E+00  0.00000000E+00
  0.00000000E+00  0.00000000E+00  0.00000000E+00
  0.00000000E+00  0.00000000E+00  0.00000000E+00
  0.00000000E+00  0.00000000E+00  0.00000000E+00
  0.00000000E+00  0.00000000E+00  0.00000000E+00
  0.00000000E+00  0.00000000E+00  0.00000000E+00
  0.00000000E+00  0.00000000E+00  0.00000000E+00
  0.00000000E+00  0.00000000E+00  0.00000000E+00
  0.00000000E+00  0.00000000E+00  0.00000000E+00
  0.00000000E+00  0.00000000E+00  0.00000000E+00
  0.00000000E+00  0.00000000E+00  0.00000000E+00
  0.00000000E+00  0.00000000E+00  0.00000000E+00
  0.00000000E+00  0.00000000E+00  0.00000000E+00
  0.00000000E+00  0.00000000E+00  0.00000000E+00
  0.00000000E+00  0.00000000E+00  0.00000000E+00
  0.00000000E+00  0.00000000E+00  0.00000000E+00
