B2C2Y1   [TET,TET,tP10] (STD_PRIM doi:10
   1.00000000000000     
     3.7976926907786646    0.0000000000000000    0.0000000000000000
     0.0000000000000000    3.7976926907786646    0.0000000000000000
     0.0000000000000000    0.0000000000000000    7.2428178568870827
   4   4   2
Direct
  0.2154470486359941  0.5000000000000000  0.5000000000000000
  0.7845529513640059  0.5000000000000000  0.5000000000000000
  0.5000000000000000  0.2154470486359941  0.0000000000000000
  0.5000000000000000  0.7845529513640059  0.0000000000000000
  0.5000000000000000  0.1875979536744197  0.5000000000000000
  0.5000000000000000  0.8124020463255803  0.5000000000000000
  0.8124020463255803  0.5000000000000000  0.0000000000000000
  0.1875979536744197  0.5000000000000000  0.0000000000000000
  0.0000000000000000  0.0000000000000000  0.2500000000000000
  0.0000000000000000  0.0000000000000000  0.7500000000000000
 
  0.00000000E+00  0.00000000E+00  0.00000000E+00
  0.00000000E+00  0.00000000E+00  0.00000000E+00
  0.00000000E+00  0.00000000E+00  0.00000000E+00
  0.00000000E+00  0.00000000E+00  0.00000000E+00
  0.00000000E+00  0.00000000E+00  0.00000000E+00
  0.00000000E+00  0.00000000E+00  0.00000000E+00
  0.00000000E+00  0.00000000E+00  0.00000000E+00
  0.00000000E+00  0.00000000E+00  0.00000000E+00
  0.00000000E+00  0.00000000E+00  0.00000000E+00
  0.00000000E+00  0.00000000E+00  0.00000000E+00
