Bi1O3Rb3   [CUB,CUB,cP28] (STD_PRIM doi:
   1.00000000000000     
     8.9699050707902401   -0.0000000000000000   -0.0000000000000000
     0.0000000000000000    8.9699050707902401   -0.0000000000000000
     0.0000000000000000   -0.0000000000000000    8.9699050707902401
   4  12  12
Direct
  0.5136554722526380  0.5136554722526380  0.5136554722526380
  0.9863445277473620  0.4863445277473620  0.0136554722526380
  0.4863445277473620  0.0136554722526380  0.9863445277473620
  0.0136554722526380  0.9863445277473620  0.4863445277473620
  0.0599973902911927  0.9966654841427114  0.7143511787978338
  0.4400026097088073  0.0033345158572886  0.2143511787978338
  0.9400026097088073  0.4966654841427114  0.7856488212021662
  0.5599973902911927  0.5033345158572886  0.2856488212021662
  0.7143511787978338  0.0599973902911927  0.9966654841427114
  0.2143511787978338  0.4400026097088073  0.0033345158572886
  0.7856488212021662  0.9400026097088073  0.4966654841427114
  0.2856488212021662  0.5599973902911927  0.5033345158572886
  0.9966654841427114  0.7143511787978338  0.0599973902911927
  0.0033345158572886  0.2143511787978338  0.4400026097088073
  0.4966654841427114  0.7856488212021662  0.9400026097088073
  0.5033345158572886  0.2856488212021662  0.5599973902911927
  0.0202757912934640  0.0202757912934640  0.0202757912934640
  0.4797242087065360  0.9797242087065360  0.5202757912934640
  0.9797242087065360  0.5202757912934640  0.4797242087065360
  0.5202757912934640  0.4797242087065360  0.9797242087065360
  0.7895897665918836  0.7895897665918836  0.7895897665918836
  0.7104102334081164  0.2104102334081164  0.2895897665918836
  0.2104102334081164  0.2895897665918836  0.7104102334081164
  0.2895897665918836  0.7104102334081164  0.2104102334081164
  0.2837979082498696  0.2837979082498696  0.2837979082498696
  0.2162020917501304  0.7162020917501305  0.7837979082498695
  0.7162020917501305  0.7837979082498695  0.2162020917501304
  0.7837979082498695  0.2162020917501304  0.7162020917501305
 
  0.00000000E+00  0.00000000E+00  0.00000000E+00
  0.00000000E+00  0.00000000E+00  0.00000000E+00
  0.00000000E+00  0.00000000E+00  0.00000000E+00
  0.00000000E+00  0.00000000E+00  0.00000000E+00
  0.00000000E+00  0.00000000E+00  0.00000000E+00
  0.00000000E+00  0.00000000E+00  0.00000000E+00
  0.00000000E+00  0.00000000E+00  0.00000000E+00
  0.00000000E+00  0.00000000E+00  0.00000000E+00
  0.00000000E+00  0.00000000E+00  0.00000000E+00
  0.00000000E+00  0.00000000E+00  0.00000000E+00
  0.00000000E+00  0.00000000E+00  0.00000000E+00
  0.00000000E+00  0.00000000E+00  0.00000000E+00
  0.00000000E+00  0.00000000E+00  0.00000000E+00
  0.00000000E+00  0.00000000E+00  0.00000000E+00
  0.00000000E+00  0.00000000E+00  0.00000000E+00
  0.00000000E+00  0.00000000E+00  0.00000000E+00
  0.00000000E+00  0.00000000E+00  0.00000000E+00
  0.00000000E+00  0.00000000E+00  0.00000000E+00
  0.00000000E+00  0.00000000E+00  0.00000000E+00
  0.00000000E+00  0.00000000E+00  0.00000000E+00
  0.00000000E+00  0.00000000E+00  0.00000000E+00
  0.00000000E+00  0.00000000E+00  0.00000000E+00
  0.00000000E+00  0.00000000E+00  0.00000000E+00
  0.00000000E+00  0.00000000E+00  0.00000000E+00
  0.00000000E+00  0.00000000E+00  0.00000000E+00
  0.00000000E+00  0.00000000E+00  0.00000000E+00
  0.00000000E+00  0.00000000E+00  0.00000000E+00
  0.00000000E+00  0.00000000E+00  0.00000000E+00
