As1Ge1   [BCT,BCT2,tI4] (STD_PRIM doi:10
   1.00000000000000     
    -1.8667371884284125    1.8667371884284125    3.0057564038452802
     1.8667371884284125   -1.8667371884284125    3.0057564038452802
     1.8667371884284125    1.8667371884284125   -3.0057564038452802
   1   1
Direct
  0.5825483954619628  0.5825483954619628  0.0000000000000000
  0.0034516045380358  0.0034516045380358 -0.0000000000000000
 
  0.00000000E+00  0.00000000E+00  0.00000000E+00
  0.00000000E+00  0.00000000E+00  0.00000000E+00
