Br6Cs2Pt1   [FCC,FCC,cF36] (STD_PRIM doi
   1.22474500000000     
     0.0000000000000000    4.4901094899547358    4.4901094899547358
     4.4901094899547358    0.0000000000000000    4.4901094899547358
     4.4901094899547358    4.4901094899547358   -0.0000000000000000
   6   2   1
Direct
  0.7715772598850833  0.2284227401149167  0.7715772598850833
  0.2284227401149167  0.7715772598850833  0.2284227401149167
  0.2284227401149167  0.2284227401149167  0.7715772598850833
  0.7715772598850833  0.7715772598850833  0.2284227401149167
  0.2284227401149167  0.7715772598850833  0.7715772598850833
  0.7715772598850833  0.2284227401149167  0.2284227401149167
  0.2500000000000000  0.2500000000000000  0.2500000000000000
  0.7500000000000000  0.7500000000000000  0.7500000000000000
  0.0000000000000000 -0.0000000000000000  0.0000000000000000
 
  0.00000000E+00  0.00000000E+00  0.00000000E+00
  0.00000000E+00  0.00000000E+00  0.00000000E+00
  0.00000000E+00  0.00000000E+00  0.00000000E+00
  0.00000000E+00  0.00000000E+00  0.00000000E+00
  0.00000000E+00  0.00000000E+00  0.00000000E+00
  0.00000000E+00  0.00000000E+00  0.00000000E+00
  0.00000000E+00  0.00000000E+00  0.00000000E+00
  0.00000000E+00  0.00000000E+00  0.00000000E+00
  0.00000000E+00  0.00000000E+00  0.00000000E+00
