Sb1Zr1   [ORCC,ORCC,oS24] (STD_PRIM doi:
   1.00000000000000     
     1.9100680674614927   -5.2691849744527186    0.0000000000000000
     1.9100680674614927    5.2691849744527186   -0.0000000000000000
     0.0000000000000000   -0.0000000000000000   14.2044390269130378
   6   6
Direct
  0.3307428777789219  0.6692571222210781  0.7500000000000000
  0.6692571222210781  0.3307428777789219  0.2500000000000000
  0.3574138518046180  0.6425861481953820  0.4510697366303080
  0.6425861481953820  0.3574138518046180  0.9510697366303079
  0.3574138518046180  0.6425861481953820  0.0489302633696920
  0.6425861481953820  0.3574138518046180  0.5489302633696921
  0.6191760066308158  0.3808239933691842  0.7500000000000000
  0.3808239933691842  0.6191760066308158  0.2500000000000000
  0.9288175074303811  0.0711824925696189  0.8916573923912028
  0.0711824925696189  0.9288175074303811  0.3916573923912029
  0.9288175074303811  0.0711824925696189  0.6083426076087972
  0.0711824925696189  0.9288175074303811  0.1083426076087971
 
  0.00000000E+00  0.00000000E+00  0.00000000E+00
  0.00000000E+00  0.00000000E+00  0.00000000E+00
  0.00000000E+00  0.00000000E+00  0.00000000E+00
  0.00000000E+00  0.00000000E+00  0.00000000E+00
  0.00000000E+00  0.00000000E+00  0.00000000E+00
  0.00000000E+00  0.00000000E+00  0.00000000E+00
  0.00000000E+00  0.00000000E+00  0.00000000E+00
  0.00000000E+00  0.00000000E+00  0.00000000E+00
  0.00000000E+00  0.00000000E+00  0.00000000E+00
  0.00000000E+00  0.00000000E+00  0.00000000E+00
  0.00000000E+00  0.00000000E+00  0.00000000E+00
  0.00000000E+00  0.00000000E+00  0.00000000E+00
