Er2O7Sn2   [FCC,FCC,cF88] (STD_PRIM doi:
   1.22474500000000     
     0.0000000000000000    4.3019090890637770    4.3019090890637770
     4.3019090890637770    0.0000000000000000    4.3019090890637770
     4.3019090890637770    4.3019090890637770    0.0000000000000000
   4  14   4
Direct
  0.5000000000000000  0.5000000000000000  0.5000000000000000
  0.5000000000000000  0.0000000000000000  0.0000000000000000
  0.0000000000000000  0.5000000000000000  0.0000000000000000
  0.5000000000000000  0.5000000000000000  0.0000000000000000
  0.6561837062897524  0.6561837062897524  0.5938162937102476
  0.0938162937102476  0.0938162937102476  0.1561837062897524
  0.0938162937102476  0.6561837062897524  0.5938162937102476
  0.6561837062897524  0.0938162937102476  0.1561837062897524
  0.6561837062897524  0.0938162937102476  0.5938162937102476
  0.0938162937102476  0.6561837062897524  0.1561837062897524
  0.3438162937102476  0.9061837062897524  0.8438162937102476
  0.9061837062897524  0.3438162937102476  0.4061837062897524
  0.9061837062897524  0.9061837062897524  0.8438162937102476
  0.3438162937102476  0.3438162937102476  0.4061837062897524
  0.3438162937102476  0.9061837062897524  0.4061837062897524
  0.9061837062897524  0.3438162937102476  0.8438162937102476
  0.6250000000000000  0.6250000000000000  0.1250000000000000
  0.3750000000000000  0.3750000000000000  0.8750000000000000
  0.0000000000000000  0.0000000000000000  0.0000000000000000
  0.0000000000000000  0.5000000000000000  0.5000000000000000
  0.5000000000000000  0.0000000000000000  0.5000000000000000
  0.0000000000000000  0.0000000000000000  0.5000000000000000
 
  0.00000000E+00  0.00000000E+00  0.00000000E+00
  0.00000000E+00  0.00000000E+00  0.00000000E+00
  0.00000000E+00  0.00000000E+00  0.00000000E+00
  0.00000000E+00  0.00000000E+00  0.00000000E+00
  0.00000000E+00  0.00000000E+00  0.00000000E+00
  0.00000000E+00  0.00000000E+00  0.00000000E+00
  0.00000000E+00  0.00000000E+00  0.00000000E+00
  0.00000000E+00  0.00000000E+00  0.00000000E+00
  0.00000000E+00  0.00000000E+00  0.00000000E+00
  0.00000000E+00  0.00000000E+00  0.00000000E+00
  0.00000000E+00  0.00000000E+00  0.00000000E+00
  0.00000000E+00  0.00000000E+00  0.00000000E+00
  0.00000000E+00  0.00000000E+00  0.00000000E+00
  0.00000000E+00  0.00000000E+00  0.00000000E+00
  0.00000000E+00  0.00000000E+00  0.00000000E+00
  0.00000000E+00  0.00000000E+00  0.00000000E+00
  0.00000000E+00  0.00000000E+00  0.00000000E+00
  0.00000000E+00  0.00000000E+00  0.00000000E+00
  0.00000000E+00  0.00000000E+00  0.00000000E+00
  0.00000000E+00  0.00000000E+00  0.00000000E+00
  0.00000000E+00  0.00000000E+00  0.00000000E+00
  0.00000000E+00  0.00000000E+00  0.00000000E+00
