Ir5La1   [HEX,HEX,hP6] (STD_PRIM doi:10.
   1.00000000000000     
     2.6765124733468570   -4.6355182518288052    0.0000000000000000
     2.6765124733468570    4.6355182518288052    0.0000000000000000
     0.0000000000000000    0.0000000000000000    4.3042175836579792
   5   1
Direct
  0.3333082164009148  0.6666917835990852  0.0000000000000000
  0.6666917835990852  0.3333082164009148  0.0000000000000000
  0.5000000000000000  0.0000000000000000  0.5000000000000000
 -0.0000000000000000  0.5000000000000000  0.5000000000000000
  0.5000000000000000  0.5000000000000000  0.5000000000000000
  0.0000000000000000  0.0000000000000000  0.0000000000000000
 
  0.00000000E+00  0.00000000E+00  0.00000000E+00
  0.00000000E+00  0.00000000E+00  0.00000000E+00
  0.00000000E+00  0.00000000E+00  0.00000000E+00
  0.00000000E+00  0.00000000E+00  0.00000000E+00
  0.00000000E+00  0.00000000E+00  0.00000000E+00
  0.00000000E+00  0.00000000E+00  0.00000000E+00
