Al2Hg1S4   [FCC,FCC,cF56] (STD_PRIM doi:
   1.22474500000000     
     0.0000000000000000    4.2464356940228205    4.2464356940228205
     4.2464356940228205    0.0000000000000000    4.2464356940228205
     4.2464356940228205    4.2464356940228205    0.0000000000000000
   4   2   8
Direct
  0.0000000000000000  0.0000000000000000  0.0000000000000000
  0.0000000000000000  0.0000000000000000  0.5000000000000000
  0.5000000000000000  0.0000000000000000  0.5000000000000000
  0.0000000000000000  0.5000000000000000  0.5000000000000000
  0.3750000000000000  0.3750000000000000  0.8750000000000000
  0.6250000000000000  0.6250000000000000  0.1250000000000000
  0.2344676503325331  0.2344676503325331  0.2965970490024148
  0.2344676503325331  0.2344676503325331  0.7344676503325331
  0.7965970490024148  0.2344676503325331  0.7344676503325331
  0.2344676503325331  0.7965970490024148  0.7344676503325331
  0.7655323496674669  0.7655323496674669  0.2655323496674669
  0.7655323496674669  0.7655323496674669  0.7034029509975852
  0.2034029509975852  0.7655323496674669  0.2655323496674669
  0.7655323496674669  0.2034029509975852  0.2655323496674669
 
  0.00000000E+00  0.00000000E+00  0.00000000E+00
  0.00000000E+00  0.00000000E+00  0.00000000E+00
  0.00000000E+00  0.00000000E+00  0.00000000E+00
  0.00000000E+00  0.00000000E+00  0.00000000E+00
  0.00000000E+00  0.00000000E+00  0.00000000E+00
  0.00000000E+00  0.00000000E+00  0.00000000E+00
  0.00000000E+00  0.00000000E+00  0.00000000E+00
  0.00000000E+00  0.00000000E+00  0.00000000E+00
  0.00000000E+00  0.00000000E+00  0.00000000E+00
  0.00000000E+00  0.00000000E+00  0.00000000E+00
  0.00000000E+00  0.00000000E+00  0.00000000E+00
  0.00000000E+00  0.00000000E+00  0.00000000E+00
  0.00000000E+00  0.00000000E+00  0.00000000E+00
  0.00000000E+00  0.00000000E+00  0.00000000E+00
