Br6K2Se1   [FCC,FCC,cF36] (STD_PRIM doi:
   1.22474500000000     
     0.0000000000000000    4.3673999360570575    4.3673999360570575
     4.3673999360570575   -0.0000000000000000    4.3673999360570575
     4.3673999360570575    4.3673999360570575    0.0000000000000000
   6   2   1
Direct
  0.2427569270814054  0.7572430729185946  0.7572430729185946
  0.7572430729185946  0.2427569270814054  0.2427569270814054
  0.2427569270814054  0.2427569270814054  0.7572430729185946
  0.7572430729185946  0.7572430729185946  0.2427569270814054
  0.2427569270814054  0.7572430729185946  0.2427569270814054
  0.7572430729185946  0.2427569270814054  0.7572430729185946
  0.7500000000000000  0.7500000000000000  0.7500000000000000
  0.2500000000000000  0.2500000000000000  0.2500000000000000
 -0.0000000000000000 -0.0000000000000000 -0.0000000000000000
 
  0.00000000E+00  0.00000000E+00  0.00000000E+00
  0.00000000E+00  0.00000000E+00  0.00000000E+00
  0.00000000E+00  0.00000000E+00  0.00000000E+00
  0.00000000E+00  0.00000000E+00  0.00000000E+00
  0.00000000E+00  0.00000000E+00  0.00000000E+00
  0.00000000E+00  0.00000000E+00  0.00000000E+00
  0.00000000E+00  0.00000000E+00  0.00000000E+00
  0.00000000E+00  0.00000000E+00  0.00000000E+00
  0.00000000E+00  0.00000000E+00  0.00000000E+00
