Ir1Si1Y1   [ORC,ORC,oP12] (STD_PRIM doi:
   1.00000000000000     
     4.2313967714958975   -0.0000000000000000    0.0000000000000000
     0.0000000000000000    6.8633280531443637    0.0000000000000000
     0.0000000000000000    0.0000000000000000    7.4156477136058188
   4   4   4
Direct
  0.2500000000000000  0.1562395599771841  0.9310949895887655
  0.7500000000000000  0.3437604400228159  0.4310949895887655
  0.7500000000000000  0.8437604400228159  0.0689050104112346
  0.2500000000000000  0.6562395599771841  0.5689050104112345
  0.2500000000000000  0.2997298151930123  0.6065476072452960
  0.7500000000000000  0.2002701848069876  0.1065476072452960
  0.7500000000000000  0.7002701848069877  0.3934523927547040
  0.2500000000000000  0.7997298151930123  0.8934523927547040
  0.2500000000000000  0.0004220521729919  0.3124337577279523
  0.7500000000000000  0.4995779478270081  0.8124337577279523
  0.7500000000000000  0.9995779478270080  0.6875662422720477
  0.2500000000000000  0.5004220521729920  0.1875662422720476
 
  0.00000000E+00  0.00000000E+00  0.00000000E+00
  0.00000000E+00  0.00000000E+00  0.00000000E+00
  0.00000000E+00  0.00000000E+00  0.00000000E+00
  0.00000000E+00  0.00000000E+00  0.00000000E+00
  0.00000000E+00  0.00000000E+00  0.00000000E+00
  0.00000000E+00  0.00000000E+00  0.00000000E+00
  0.00000000E+00  0.00000000E+00  0.00000000E+00
  0.00000000E+00  0.00000000E+00  0.00000000E+00
  0.00000000E+00  0.00000000E+00  0.00000000E+00
  0.00000000E+00  0.00000000E+00  0.00000000E+00
  0.00000000E+00  0.00000000E+00  0.00000000E+00
  0.00000000E+00  0.00000000E+00  0.00000000E+00
