O4P1Tb1   [BCT,BCT1,tI24] (STD_PRIM doi:
   1.00000000000000     
    -3.4956499999999999    3.4956499999999999    3.0411500000000000
     3.4956499999999999   -3.4956499999999999    3.0411500000000000
     3.4956499999999999    3.4956499999999999   -3.0411500000000000
   8   2   2
Direct
  0.7081999999999979  0.7843000000000018  0.9239000000000033
  0.3603999999999985  0.7843000000000018  0.5760999999999967
  0.7843000000000018  0.7081999999999979  0.4239000000000033
  0.7843000000000018  0.3603999999999985  0.0760999999999967
  0.6396000000000015  0.2156999999999982  0.4239000000000033
  0.2918000000000021  0.2156999999999982  0.0760999999999967
  0.2156999999999982  0.2918000000000021  0.5760999999999967
  0.2156999999999982  0.6396000000000015  0.9239000000000033
  0.3750000000000000  0.6250000000000000  0.7500000000000000
  0.6250000000000000  0.3750000000000000  0.2500000000000000
  0.1250000000000000  0.8750000000000000  0.2500000000000000
  0.8750000000000000  0.1250000000000000  0.7500000000000000
 
  0.00000000E+00  0.00000000E+00  0.00000000E+00
  0.00000000E+00  0.00000000E+00  0.00000000E+00
  0.00000000E+00  0.00000000E+00  0.00000000E+00
  0.00000000E+00  0.00000000E+00  0.00000000E+00
  0.00000000E+00  0.00000000E+00  0.00000000E+00
  0.00000000E+00  0.00000000E+00  0.00000000E+00
  0.00000000E+00  0.00000000E+00  0.00000000E+00
  0.00000000E+00  0.00000000E+00  0.00000000E+00
  0.00000000E+00  0.00000000E+00  0.00000000E+00
  0.00000000E+00  0.00000000E+00  0.00000000E+00
  0.00000000E+00  0.00000000E+00  0.00000000E+00
  0.00000000E+00  0.00000000E+00  0.00000000E+00
