Ga1La1Pd2   [ORC,ORC,oP16] (STD_PRIM doi
   1.00000000000000     
     5.9278665280673302   -0.0000000000000000    0.0000000000000000
     0.0000000000000000    7.1376879689564960    0.0000000000000000
     0.0000000000000000    0.0000000000000000    7.7162313732676688
   4   4   8
Direct
  0.3475919364029402  0.7500000000000000  0.3794974874070301
  0.8475919364029402  0.2500000000000000  0.1205025125929699
  0.6524080635970598  0.2500000000000000  0.6205025125929700
  0.1524080635970598  0.7500000000000000  0.8794974874070300
  0.6518808544352899  0.7500000000000000  0.0336610056200547
  0.1518808544352899  0.2500000000000000  0.4663389943799453
  0.3481191455647101  0.2500000000000000  0.9663389943799454
  0.8481191455647101  0.7500000000000000  0.5336610056200546
  0.0881174626817454  0.9465967447697382  0.1769564298519198
  0.5881174626817455  0.0534032552302618  0.3230435701480802
  0.9118825373182545  0.4465967447697383  0.8230435701480802
  0.4118825373182546  0.5534032552302618  0.6769564298519198
  0.9118825373182545  0.0534032552302618  0.8230435701480802
  0.4118825373182546  0.9465967447697382  0.6769564298519198
  0.0881174626817454  0.5534032552302618  0.1769564298519198
  0.5881174626817455  0.4465967447697383  0.3230435701480802
 
  0.00000000E+00  0.00000000E+00  0.00000000E+00
  0.00000000E+00  0.00000000E+00  0.00000000E+00
  0.00000000E+00  0.00000000E+00  0.00000000E+00
  0.00000000E+00  0.00000000E+00  0.00000000E+00
  0.00000000E+00  0.00000000E+00  0.00000000E+00
  0.00000000E+00  0.00000000E+00  0.00000000E+00
  0.00000000E+00  0.00000000E+00  0.00000000E+00
  0.00000000E+00  0.00000000E+00  0.00000000E+00
  0.00000000E+00  0.00000000E+00  0.00000000E+00
  0.00000000E+00  0.00000000E+00  0.00000000E+00
  0.00000000E+00  0.00000000E+00  0.00000000E+00
  0.00000000E+00  0.00000000E+00  0.00000000E+00
  0.00000000E+00  0.00000000E+00  0.00000000E+00
  0.00000000E+00  0.00000000E+00  0.00000000E+00
  0.00000000E+00  0.00000000E+00  0.00000000E+00
  0.00000000E+00  0.00000000E+00  0.00000000E+00
