In1Sc3   [HEX,HEX,hP8] (STD_PRIM doi:10.
   1.00000000000000     
     3.2618947692262736   -5.6497837988210398    0.0000000000000000
     3.2618947692262736    5.6497837988210398   -0.0000000000000000
     0.0000000000000000   -0.0000000000000000    5.3073675056038239
   2   6
Direct
  0.3333286836932006  0.6666713163067993  0.2500000000000000
  0.6666713163067993  0.3333286836932006  0.7500000000000000
  0.8318132093198507  0.1681867906801493  0.2500000000000000
  0.8318088201156059  0.6636259878069168  0.2500000000000000
  0.3363740121930832  0.1681911798843941  0.2500000000000000
  0.1681867906801493  0.8318132093198507  0.7500000000000000
  0.1681911798843941  0.3363740121930832  0.7500000000000000
  0.6636259878069168  0.8318088201156059  0.7500000000000000
 
  0.00000000E+00  0.00000000E+00  0.00000000E+00
  0.00000000E+00  0.00000000E+00  0.00000000E+00
  0.00000000E+00  0.00000000E+00  0.00000000E+00
  0.00000000E+00  0.00000000E+00  0.00000000E+00
  0.00000000E+00  0.00000000E+00  0.00000000E+00
  0.00000000E+00  0.00000000E+00  0.00000000E+00
  0.00000000E+00  0.00000000E+00  0.00000000E+00
  0.00000000E+00  0.00000000E+00  0.00000000E+00
