Ag1As1Ba1   [HEX,HEX,hP6] (STD_PRIM doi:
   1.00000000000000     
     2.3492032485312837   -4.0689393837620340   -0.0000000000000000
     2.3491023020082880    4.0688811022598088    0.0000000000000000
    -0.0000000000000000    0.0000000000000000    8.9799025916659527
   2   2   2
Direct
  0.6666818927087110  0.3333637854174150  0.7500000000000000
  0.3333181072912890  0.6666362145825850  0.2500000000000000
  0.6666817648844131  0.3333635297688334  0.2500000000000000
  0.3333182351155868  0.6666364702311666  0.7500000000000000
  0.0000000000000000  0.0000000000000000  0.0000000000000000
 -0.0000000000000000 -0.0000000000000000  0.5000000000000000
 
  0.00000000E+00  0.00000000E+00  0.00000000E+00
  0.00000000E+00  0.00000000E+00  0.00000000E+00
  0.00000000E+00  0.00000000E+00  0.00000000E+00
  0.00000000E+00  0.00000000E+00  0.00000000E+00
  0.00000000E+00  0.00000000E+00  0.00000000E+00
  0.00000000E+00  0.00000000E+00  0.00000000E+00
