As1Mg1Na1   [TET,TET,tP6] (STD_PRIM doi:
   1.00000000000000     
     4.4100851228129505    0.0000000000000000    0.0000000000000000
     0.0000000000000000    4.4100851228129505    0.0000000000000000
     0.0000000000000000    0.0000000000000000    7.1854519313428691
   2   2   2
Direct
  0.2500000000000000  0.2500000000000000  0.2179223279994494
  0.7500000000000000  0.7500000000000000  0.7820776720005507
  0.7500000000000000  0.2500000000000000 -0.0000000000000000
  0.2500000000000000  0.7500000000000000  0.0000000000000000
  0.2500000000000000  0.2500000000000000  0.6318805738155204
  0.7500000000000000  0.7500000000000000  0.3681194261844796
 
  0.00000000E+00  0.00000000E+00  0.00000000E+00
  0.00000000E+00  0.00000000E+00  0.00000000E+00
  0.00000000E+00  0.00000000E+00  0.00000000E+00
  0.00000000E+00  0.00000000E+00  0.00000000E+00
  0.00000000E+00  0.00000000E+00  0.00000000E+00
  0.00000000E+00  0.00000000E+00  0.00000000E+00
