Al2Pb1S4   [ORCC,ORCC,oS28] (STD_PRIM do
   1.00000000000000     
     2.9834692141082737   -5.2718669635674358    0.0000000000000000
     2.9834692141082737    5.2718669635674358    0.0000000000000000
     0.0000000000000000    0.0000000000000000   10.6078302400582345
   4   2   8
Direct
  0.2382690119150794  0.7597200801273295 -0.0000000000000000
  0.7617309880849207  0.2402799198726705  0.0000000000000000
  0.2402799198726705  0.7617309880849207  0.5000000000000000
  0.7597200801273295  0.2382690119150794  0.5000000000000000
  0.5000000000000000  0.5000000000000000  0.7500000000000000
  0.5000000000000000  0.5000000000000000  0.2500000000000000
  0.6452352415235865  0.8205298000699890  0.0000000000000000
  0.3547647584764135  0.1794701999300109  0.0000000000000000
  0.1794701999300109  0.3547647584764135  0.5000000000000000
  0.8205298000699890  0.6452352415235865  0.5000000000000000
  0.5000000000000000  0.0000000000000000  0.6623996708365235
 -0.0000000000000000  0.5000000000000000  0.8376003291634765
  0.5000000000000000  0.0000000000000000  0.3376003291634765
 -0.0000000000000000  0.5000000000000000  0.1623996708365235
 
  0.00000000E+00  0.00000000E+00  0.00000000E+00
  0.00000000E+00  0.00000000E+00  0.00000000E+00
  0.00000000E+00  0.00000000E+00  0.00000000E+00
  0.00000000E+00  0.00000000E+00  0.00000000E+00
  0.00000000E+00  0.00000000E+00  0.00000000E+00
  0.00000000E+00  0.00000000E+00  0.00000000E+00
  0.00000000E+00  0.00000000E+00  0.00000000E+00
  0.00000000E+00  0.00000000E+00  0.00000000E+00
  0.00000000E+00  0.00000000E+00  0.00000000E+00
  0.00000000E+00  0.00000000E+00  0.00000000E+00
  0.00000000E+00  0.00000000E+00  0.00000000E+00
  0.00000000E+00  0.00000000E+00  0.00000000E+00
  0.00000000E+00  0.00000000E+00  0.00000000E+00
  0.00000000E+00  0.00000000E+00  0.00000000E+00
