O2Rh1   [TET,TET,tP6] (STD_PRIM doi:10.1
   1.00000000000000     
     4.5738927388275377    0.0000000000000000    0.0000000000000000
     0.0000000000000000    4.5738927388275377    0.0000000000000000
     0.0000000000000000    0.0000000000000000    3.1352188710779476
   4   2
Direct
  0.3052315301243028  0.3052315301243028  0.0000000000000000
  0.6947684698756973  0.6947684698756973  0.0000000000000000
  0.1947684698756973  0.8052315301243027  0.5000000000000000
  0.8052315301243027  0.1947684698756973  0.5000000000000000
  0.0000000000000000  0.0000000000000000  0.0000000000000000
  0.5000000000000000  0.5000000000000000  0.5000000000000000
 
  0.00000000E+00  0.00000000E+00  0.00000000E+00
  0.00000000E+00  0.00000000E+00  0.00000000E+00
  0.00000000E+00  0.00000000E+00  0.00000000E+00
  0.00000000E+00  0.00000000E+00  0.00000000E+00
  0.00000000E+00  0.00000000E+00  0.00000000E+00
  0.00000000E+00  0.00000000E+00  0.00000000E+00
