Ca2Si1   [ORC,ORC,oP12] (STD_PRIM doi:10
   1.00000000000000     
     4.8150115927168331    0.0000000000000000    0.0000000000000000
     0.0000000000000000    7.6234078859710941    0.0000000000000000
     0.0000000000000000    0.0000000000000000    9.0488282299459968
   8   4
Direct
  0.2500000000000000  0.5202813528295422  0.3226450491670434
  0.7500000000000000  0.9797186471704578  0.8226450491670434
  0.7500000000000000  0.4797186471704578  0.6773549508329566
  0.2500000000000000  0.0202813528295422  0.1773549508329566
  0.2500000000000000  0.6534120675288264  0.9263101249934991
  0.7500000000000000  0.8465879324711736  0.4263101249934991
  0.7500000000000000  0.3465879324711736  0.0736898750065009
  0.2500000000000000  0.1534120675288264  0.5736898750065009
  0.2500000000000000  0.2523386716186096  0.8937617202435533
  0.7500000000000000  0.2476613283813904  0.3937617202435533
  0.7500000000000000  0.7476613283813904  0.1062382797564467
  0.2500000000000000  0.7523386716186096  0.6062382797564467
 
  0.00000000E+00  0.00000000E+00  0.00000000E+00
  0.00000000E+00  0.00000000E+00  0.00000000E+00
  0.00000000E+00  0.00000000E+00  0.00000000E+00
  0.00000000E+00  0.00000000E+00  0.00000000E+00
  0.00000000E+00  0.00000000E+00  0.00000000E+00
  0.00000000E+00  0.00000000E+00  0.00000000E+00
  0.00000000E+00  0.00000000E+00  0.00000000E+00
  0.00000000E+00  0.00000000E+00  0.00000000E+00
  0.00000000E+00  0.00000000E+00  0.00000000E+00
  0.00000000E+00  0.00000000E+00  0.00000000E+00
  0.00000000E+00  0.00000000E+00  0.00000000E+00
  0.00000000E+00  0.00000000E+00  0.00000000E+00
