Mg2Sr1   [HEX,HEX,hP12] (STD_PRIM doi:10
   1.00000000000000     
     3.2291189385725598   -5.5936365649257596    0.0000000000000000
     3.2291189385725598    5.5936365649257596    0.0000000000000000
     0.0000000000000000    0.0000000000000000   10.3977045754473902
   8   4
Direct
  0.0000000000000000  0.0000000000000000  0.0000000000000000
  0.0000000000000000  0.0000000000000000  0.5000000000000000
  0.8332079995661488  0.6664209193872850  0.2500000000000000
  0.3335790806127150  0.1667920004338512  0.2500000000000000
  0.8332102919887063  0.1667897080112937  0.2500000000000000
  0.1667920004338512  0.3335790806127150  0.7500000000000000
  0.6664209193872850  0.8332079995661488  0.7500000000000000
  0.1667897080112937  0.8332102919887063  0.7500000000000000
  0.3333071293553687  0.6666928706446313  0.0606661480275363
  0.6666928706446313  0.3333071293553687  0.5606661480275363
  0.6666928706446313  0.3333071293553687  0.9393338519724637
  0.3333071293553687  0.6666928706446313  0.4393338519724637
 
  0.00000000E+00  0.00000000E+00  0.00000000E+00
  0.00000000E+00  0.00000000E+00  0.00000000E+00
  0.00000000E+00  0.00000000E+00  0.00000000E+00
  0.00000000E+00  0.00000000E+00  0.00000000E+00
  0.00000000E+00  0.00000000E+00  0.00000000E+00
  0.00000000E+00  0.00000000E+00  0.00000000E+00
  0.00000000E+00  0.00000000E+00  0.00000000E+00
  0.00000000E+00  0.00000000E+00  0.00000000E+00
  0.00000000E+00  0.00000000E+00  0.00000000E+00
  0.00000000E+00  0.00000000E+00  0.00000000E+00
  0.00000000E+00  0.00000000E+00  0.00000000E+00
  0.00000000E+00  0.00000000E+00  0.00000000E+00
