Au1Dy1Ge1   [HEX,HEX,hP6] (STD_PRIM doi:
   1.00000000000000     
     2.2393334703402794   -3.8786393457188986    0.0000000000000000
     2.2393239358062531    3.8786338409531118    0.0000000000000000
     0.0000000000000000    0.0000000000000000    7.3077611492793881
   2   2   2
Direct
  0.6666678118385778  0.3333356236771485  0.1326686745145734
  0.3333321881614222  0.6666643763228516  0.6326686745145735
  0.9999997883751576  0.9999995767503220  0.8435391786050922
  0.0000002116248425  0.0000004232496779  0.3435391786050922
  0.6666658654688623  0.3333317309377177  0.5497921468803306
  0.3333341345311376  0.6666682690622823  0.0497921468803306
 
  0.00000000E+00  0.00000000E+00  0.00000000E+00
  0.00000000E+00  0.00000000E+00  0.00000000E+00
  0.00000000E+00  0.00000000E+00  0.00000000E+00
  0.00000000E+00  0.00000000E+00  0.00000000E+00
  0.00000000E+00  0.00000000E+00  0.00000000E+00
  0.00000000E+00  0.00000000E+00  0.00000000E+00
