Be1N2Si1   [ORC,ORC,oP16] (STD_PRIM doi:
   1.00000000000000     
     4.7010821757616261    0.0000000000000000    0.0000000000000000
     0.0000000000000000    5.0010986044633139    0.0000000000000000
     0.0000000000000000    0.0000000000000000    5.7734524326235226
   4   8   4
Direct
  0.0000876923673380  0.0825955459437139  0.3748184985768307
  0.5000876923673381  0.9174044540562861  0.6251815014231693
  0.0000876923673380  0.5825955459437139  0.1251815014231693
  0.5000876923673381  0.4174044540562861  0.8748184985768307
  0.6256728670512971  0.0800138593581178  0.8772899609951044
  0.1256728670512972  0.9199861406418822  0.1227100390048956
  0.6256728670512971  0.5800138593581178  0.6227100390048956
  0.1256728670512972  0.4199861406418823  0.3772899609951044
  0.6215006740050854  0.0847665459741692  0.3725950389133830
  0.1215006740050854  0.9152334540258308  0.6274049610866170
  0.6215006740050854  0.5847665459741692  0.1274049610866170
  0.1215006740050854  0.4152334540258308  0.8725950389133830
  0.0007387665762841  0.0849493227467038  0.8749495353130091
  0.5007387665762841  0.9150506772532961  0.1250504646869909
  0.0007387665762841  0.5849493227467039  0.6250504646869909
  0.5007387665762841  0.4150506772532961  0.3749495353130091
 
  0.00000000E+00  0.00000000E+00  0.00000000E+00
  0.00000000E+00  0.00000000E+00  0.00000000E+00
  0.00000000E+00  0.00000000E+00  0.00000000E+00
  0.00000000E+00  0.00000000E+00  0.00000000E+00
  0.00000000E+00  0.00000000E+00  0.00000000E+00
  0.00000000E+00  0.00000000E+00  0.00000000E+00
  0.00000000E+00  0.00000000E+00  0.00000000E+00
  0.00000000E+00  0.00000000E+00  0.00000000E+00
  0.00000000E+00  0.00000000E+00  0.00000000E+00
  0.00000000E+00  0.00000000E+00  0.00000000E+00
  0.00000000E+00  0.00000000E+00  0.00000000E+00
  0.00000000E+00  0.00000000E+00  0.00000000E+00
  0.00000000E+00  0.00000000E+00  0.00000000E+00
  0.00000000E+00  0.00000000E+00  0.00000000E+00
  0.00000000E+00  0.00000000E+00  0.00000000E+00
  0.00000000E+00  0.00000000E+00  0.00000000E+00
