Hf5Si3   [HEX,HEX,hP16] (STD_PRIM doi:10
   1.00000000000000     
     3.9456596921529230   -6.8340830561854302    0.0000000000000000
     3.9456528245967672    6.8340790912000369    0.0000000000000000
    -0.0000000000000000    0.0000000000000000    5.5024959448394855
  10   6
Direct
  0.6666685774338555  0.3333371548677181  0.0000000000000000
  0.3333314225661445  0.6666628451322818  0.5000000000000000
  0.3333314225661445  0.6666628451322818  0.0000000000000000
  0.6666685774338555  0.3333371548677181  0.5000000000000000
  0.0000009916961358  0.7473936604423823  0.2500000000000000
  0.2526073312537535  0.2526063395576177  0.2500000000000000
  0.7473895836678710  0.0000000000000000  0.2500000000000000
  0.9999990083038641  0.2526063395576177  0.7500000000000000
  0.7473926687462465  0.7473936604423823  0.7500000000000000
  0.2526104163321289 -0.0000000000000000  0.7500000000000000
  0.0000024547694159  0.3906427708325116  0.2500000000000000
  0.6093596839369043  0.6093572291674884  0.2500000000000000
  0.3906406658472200 -0.0000000000000000  0.2500000000000000
  0.9999975452305840  0.6093572291674884  0.7500000000000000
  0.3906403160630958  0.3906427708325116  0.7500000000000000
  0.6093593341527801  0.0000000000000000  0.7500000000000000
 
  0.00000000E+00  0.00000000E+00  0.00000000E+00
  0.00000000E+00  0.00000000E+00  0.00000000E+00
  0.00000000E+00  0.00000000E+00  0.00000000E+00
  0.00000000E+00  0.00000000E+00  0.00000000E+00
  0.00000000E+00  0.00000000E+00  0.00000000E+00
  0.00000000E+00  0.00000000E+00  0.00000000E+00
  0.00000000E+00  0.00000000E+00  0.00000000E+00
  0.00000000E+00  0.00000000E+00  0.00000000E+00
  0.00000000E+00  0.00000000E+00  0.00000000E+00
  0.00000000E+00  0.00000000E+00  0.00000000E+00
  0.00000000E+00  0.00000000E+00  0.00000000E+00
  0.00000000E+00  0.00000000E+00  0.00000000E+00
  0.00000000E+00  0.00000000E+00  0.00000000E+00
  0.00000000E+00  0.00000000E+00  0.00000000E+00
  0.00000000E+00  0.00000000E+00  0.00000000E+00
  0.00000000E+00  0.00000000E+00  0.00000000E+00
