Na1Nb1O3   [CUB,CUB,cP5] (STD_PRIM doi:1
   1.00000000000000     
     3.9872486872098283    0.0000000000000000    0.0000000000000000
     0.0000000000000000    3.9872486872098283    0.0000000000000000
     0.0000000000000000    0.0000000000000000    3.9872486872098283
   1   1   3
Direct
  0.0000000000000000  0.0000000000000000  0.0000000000000000
  0.5000000000000000  0.5000000000000000  0.5000000000000000
  0.5000000000000000  0.0000000000000000  0.5000000000000000
  0.5000000000000000  0.5000000000000000  0.0000000000000000
  0.0000000000000000  0.5000000000000000  0.5000000000000000
 
  0.00000000E+00  0.00000000E+00  0.00000000E+00
  0.00000000E+00  0.00000000E+00  0.00000000E+00
  0.00000000E+00  0.00000000E+00  0.00000000E+00
  0.00000000E+00  0.00000000E+00  0.00000000E+00
  0.00000000E+00  0.00000000E+00  0.00000000E+00
