Ag1Al1S2   [HEX,HEX,hP4] (STD_PRIM doi:1
   1.00000000000000     
     1.7747725097132265   -3.0739961586998423    0.0000000000000000
     1.7747417639757013    3.0739784076400056   -0.0000800139904409
    -0.0001572723346715   -0.0000908012247587    6.9308684272720322
   1   1   2
Direct
  0.6666983076788873  0.3333966153577674  0.5442135372282104
  0.0000050276383637  0.0000100552767273  0.0073695429179307
  0.6666849130659510  0.3333698261318949  0.1869949928933532
  0.3333117516168039  0.6666235032336079  0.8064219269605004
 
  0.00000000E+00  0.00000000E+00  0.00000000E+00
  0.00000000E+00  0.00000000E+00  0.00000000E+00
  0.00000000E+00  0.00000000E+00  0.00000000E+00
  0.00000000E+00  0.00000000E+00  0.00000000E+00
