Fe1Hf1Si1   [ORC,ORC,oP12] (STD_PRIM doi
   1.00000000000000     
     3.6479435031772742    0.0000000000000000    0.0000000000000000
     0.0000000000000000    6.7324477939158429    0.0000000000000000
     0.0000000000000000    0.0000000000000000    7.7164978361545264
   4   4   4
Direct
  0.2500000000000000  0.1371655436441673  0.9287556897778279
  0.7500000000000000  0.3628344563558327  0.4287556897778280
  0.7500000000000000  0.8628344563558327  0.0712443102221721
  0.2500000000000000  0.6371655436441673  0.5712443102221721
  0.2500000000000000  0.0271547759591796  0.3189395661629681
  0.7500000000000000  0.4728452240408205  0.8189395661629680
  0.7500000000000000  0.9728452240408204  0.6810604338370320
  0.2500000000000000  0.5271547759591796  0.1810604338370319
  0.2500000000000000  0.2650178531635936  0.6182745083401692
  0.7500000000000000  0.2349821468364064  0.1182745083401691
  0.7500000000000000  0.7349821468364063  0.3817254916598308
  0.2500000000000000  0.7650178531635937  0.8817254916598308
 
  0.00000000E+00  0.00000000E+00  0.00000000E+00
  0.00000000E+00  0.00000000E+00  0.00000000E+00
  0.00000000E+00  0.00000000E+00  0.00000000E+00
  0.00000000E+00  0.00000000E+00  0.00000000E+00
  0.00000000E+00  0.00000000E+00  0.00000000E+00
  0.00000000E+00  0.00000000E+00  0.00000000E+00
  0.00000000E+00  0.00000000E+00  0.00000000E+00
  0.00000000E+00  0.00000000E+00  0.00000000E+00
  0.00000000E+00  0.00000000E+00  0.00000000E+00
  0.00000000E+00  0.00000000E+00  0.00000000E+00
  0.00000000E+00  0.00000000E+00  0.00000000E+00
  0.00000000E+00  0.00000000E+00  0.00000000E+00
