Pt1Sn1Sr1   [ORC,ORC,oP12] (STD_PRIM doi
   1.00000000000000     
     4.7849000024414092    0.0000000000000000    0.0000000000000000
     0.0000000000000000    7.6822191718297699    0.0000000000000000
     0.0000000000000000    0.0000000000000000    8.1663297758776832
   4   4   4
Direct
  0.2500000000000000  0.2950188129132859  0.6067304831226762
  0.7500000000000000  0.2049811870867141  0.1067304831226762
  0.7500000000000000  0.7049811870867141  0.3932695168773238
  0.2500000000000000  0.7950188129132859  0.8932695168773238
  0.2500000000000000  0.1620315284345151  0.9257944645793482
  0.7500000000000000  0.3379684715654849  0.4257944645793483
  0.7500000000000000  0.8379684715654849  0.0742055354206517
  0.2500000000000000  0.6620315284345151  0.5742055354206518
  0.2500000000000000  0.0234168833376971  0.3166353545733588
  0.7500000000000000  0.4765831166623100  0.8166353545733588
  0.7500000000000000  0.9765831166623100  0.6833646454266412
  0.2500000000000000  0.5234168833376900  0.1833646454266412
 
  0.00000000E+00  0.00000000E+00  0.00000000E+00
  0.00000000E+00  0.00000000E+00  0.00000000E+00
  0.00000000E+00  0.00000000E+00  0.00000000E+00
  0.00000000E+00  0.00000000E+00  0.00000000E+00
  0.00000000E+00  0.00000000E+00  0.00000000E+00
  0.00000000E+00  0.00000000E+00  0.00000000E+00
  0.00000000E+00  0.00000000E+00  0.00000000E+00
  0.00000000E+00  0.00000000E+00  0.00000000E+00
  0.00000000E+00  0.00000000E+00  0.00000000E+00
  0.00000000E+00  0.00000000E+00  0.00000000E+00
  0.00000000E+00  0.00000000E+00  0.00000000E+00
  0.00000000E+00  0.00000000E+00  0.00000000E+00
