Se2Ta1   [HEX,HEX,hP12] (STD_PRIM doi:10
   1.00000000000000     
     1.7465326391274123   -3.0250832680460396    0.0000000000000000
     1.7466022071926977    3.0251234331872587    0.0000000000000000
     0.0000000000000000    0.0000000000000000   27.7710176400210393
   8   4
Direct
  0.3333260333824768  0.6666520667649536  0.0607421944581645
  0.3333260333824768  0.6666520667649536  0.9392578055418355
  0.9999909161450518  0.9999818322900964  0.1893298096625315
  0.9999909161450518  0.9999818322900964  0.8106701903374685
  0.9999913341660189  0.9999826683320308  0.3108460499505838
  0.9999913341660189  0.9999826683320308  0.6891539500494162
  0.6666729998425822  0.3333459996851715  0.4392720148769413
  0.6666729998425822  0.3333459996851715  0.5607279851230587
  0.6666508143256635  0.3333016286513200  0.0000000000000000
  0.3333483895697071  0.6666967791394143  0.5000000000000000
  0.3333191145161862  0.6666382290323796  0.2501559726925109
  0.3333191145161862  0.6666382290323796  0.7498440273074891
 
  0.00000000E+00  0.00000000E+00  0.00000000E+00
  0.00000000E+00  0.00000000E+00  0.00000000E+00
  0.00000000E+00  0.00000000E+00  0.00000000E+00
  0.00000000E+00  0.00000000E+00  0.00000000E+00
  0.00000000E+00  0.00000000E+00  0.00000000E+00
  0.00000000E+00  0.00000000E+00  0.00000000E+00
  0.00000000E+00  0.00000000E+00  0.00000000E+00
  0.00000000E+00  0.00000000E+00  0.00000000E+00
  0.00000000E+00  0.00000000E+00  0.00000000E+00
  0.00000000E+00  0.00000000E+00  0.00000000E+00
  0.00000000E+00  0.00000000E+00  0.00000000E+00
  0.00000000E+00  0.00000000E+00  0.00000000E+00
