Ca2O4Pb1   [ORC,ORC,oP14] (STD_PRIM doi:
   1.00000000000000     
     3.4232266995351779    0.0000000000000000    0.0000000000000000
     0.0000000000000000    5.8876148009353031    0.0000000000000000
     0.0000000000000000    0.0000000000000000    9.9282555838202722
   4   8   2
Direct
  0.5000000000000000  0.0717195791682340  0.6815425989350995
  0.5000000000000000  0.9282804208317660  0.3184574010649004
  0.5000000000000000  0.4282804208317659  0.1815425989350995
  0.5000000000000000  0.5717195791682340  0.8184574010649005
  0.5000000000000000  0.2413746693265183  0.9523975323235129
  0.5000000000000000  0.7586253306734816  0.0476024676764871
  0.5000000000000000  0.2586253306734817  0.4523975323235129
  0.5000000000000000  0.7413746693265184  0.5476024676764871
  0.0000000000000000  0.3591835309649302  0.7012592931902110
  0.0000000000000000  0.6408164690350697  0.2987407068097890
  0.0000000000000000  0.1408164690350698  0.2012592931902109
  0.0000000000000000  0.8591835309649303  0.7987407068097890
  0.0000000000000000  0.0000000000000000  0.0000000000000000
  0.0000000000000000  0.5000000000000000  0.5000000000000000
 
  0.00000000E+00  0.00000000E+00  0.00000000E+00
  0.00000000E+00  0.00000000E+00  0.00000000E+00
  0.00000000E+00  0.00000000E+00  0.00000000E+00
  0.00000000E+00  0.00000000E+00  0.00000000E+00
  0.00000000E+00  0.00000000E+00  0.00000000E+00
  0.00000000E+00  0.00000000E+00  0.00000000E+00
  0.00000000E+00  0.00000000E+00  0.00000000E+00
  0.00000000E+00  0.00000000E+00  0.00000000E+00
  0.00000000E+00  0.00000000E+00  0.00000000E+00
  0.00000000E+00  0.00000000E+00  0.00000000E+00
  0.00000000E+00  0.00000000E+00  0.00000000E+00
  0.00000000E+00  0.00000000E+00  0.00000000E+00
  0.00000000E+00  0.00000000E+00  0.00000000E+00
  0.00000000E+00  0.00000000E+00  0.00000000E+00
