Li1P1Sr1   [HEX,HEX,hP6] (STD_PRIM doi:1
   1.00000000000000     
     2.1948846176724932   -3.8016516745601514    0.0000000000000000
     2.1948073762941687    3.8016070792295835    0.0000000000000000
     0.0000000000000000   -0.0000000000000000    8.0619411687361549
   2   2   2
Direct
  0.6666742823137461  0.3333485646274995  0.2500000000000000
  0.3333257176862539  0.6666514353725006  0.7500000000000000
  0.6666712396717150  0.3333424793434301  0.7500000000000000
  0.3333287603282850  0.6666575206565699  0.2500000000000000
 -0.0000000000000000  0.0000000000000000 -0.0000000000000000
  0.0000000000000000  0.0000000000000000  0.5000000000000000
 
  0.00000000E+00  0.00000000E+00  0.00000000E+00
  0.00000000E+00  0.00000000E+00  0.00000000E+00
  0.00000000E+00  0.00000000E+00  0.00000000E+00
  0.00000000E+00  0.00000000E+00  0.00000000E+00
  0.00000000E+00  0.00000000E+00  0.00000000E+00
  0.00000000E+00  0.00000000E+00  0.00000000E+00
