As2Ca1Cd2   [HEX,HEX,hP5] (STD_PRIM doi:
   1.00000000000000     
     2.2224218674082383   -3.8492356219367774   -0.0000647151729687
     2.2224218674082383    3.8492356219367774    0.0000647151729687
     0.0000000000000000    0.0001235073774148    7.2055403857673603
   2   1   2
Direct
  0.3333377408907799  0.6666622591092199  0.2348852419429349
  0.6666622591092199  0.3333377408907799  0.7651147580570652
  0.0000000000000000  0.0000000000000000  0.0000000000000000
  0.3333327975229918  0.6666672024770081  0.6336921439164870
  0.6666672024770081  0.3333327975229918  0.3663078560835131
 
  0.00000000E+00  0.00000000E+00  0.00000000E+00
  0.00000000E+00  0.00000000E+00  0.00000000E+00
  0.00000000E+00  0.00000000E+00  0.00000000E+00
  0.00000000E+00  0.00000000E+00  0.00000000E+00
  0.00000000E+00  0.00000000E+00  0.00000000E+00
