Se3Th2   [ORC,ORC,oP20] (STD_PRIM doi:10
   1.00000000000000     
     4.1028679701434951    0.0000000000000000    0.0000000000000000
     0.0000000000000000   11.8730626447839214   -0.0008891221583164
     0.0000000000000000   -0.0009904148476028   11.5979665690360285
  12   8
Direct
  0.7500000000000000  0.1188074207550528  0.0537850048440747
  0.2500000000000000  0.6187521472731452  0.4460844644111019
  0.2500000000000000  0.8811925792449472  0.9462149951559253
  0.7500000000000000  0.3812478527268548  0.5539155355888982
  0.2500000000000000  0.5536610406066518  0.1197506391094162
  0.7500000000000000  0.0536391691699245  0.3804731114848014
  0.7500000000000000  0.4463389593933482  0.8802493608905838
  0.2500000000000000  0.9463608308300755  0.6195268885151985
  0.7500000000000000  0.7944995417613845  0.2104615258884208
  0.2500000000000000  0.2940979851607113  0.2894024276312067
  0.2500000000000000  0.2055004582386155  0.7895384741115791
  0.7500000000000000  0.7059020148392886  0.7105975723687934
  0.7500000000000000  0.6860098564912855  0.9697172883127128
  0.2500000000000000  0.1861171115402599  0.5303900687888780
  0.2500000000000000  0.3139901435087145  0.0302827116872873
  0.7500000000000000  0.8138828884597401  0.4696099312111221
  0.2500000000000000  0.9796973011771906  0.2012713275269622
  0.7500000000000000  0.4793027404981087  0.2988045639635130
  0.7500000000000000  0.0203026988228094  0.7987286724730378
  0.2500000000000000  0.5206972595018914  0.7011954360364869
 
  0.00000000E+00  0.00000000E+00  0.00000000E+00
  0.00000000E+00  0.00000000E+00  0.00000000E+00
  0.00000000E+00  0.00000000E+00  0.00000000E+00
  0.00000000E+00  0.00000000E+00  0.00000000E+00
  0.00000000E+00  0.00000000E+00  0.00000000E+00
  0.00000000E+00  0.00000000E+00  0.00000000E+00
  0.00000000E+00  0.00000000E+00  0.00000000E+00
  0.00000000E+00  0.00000000E+00  0.00000000E+00
  0.00000000E+00  0.00000000E+00  0.00000000E+00
  0.00000000E+00  0.00000000E+00  0.00000000E+00
  0.00000000E+00  0.00000000E+00  0.00000000E+00
  0.00000000E+00  0.00000000E+00  0.00000000E+00
  0.00000000E+00  0.00000000E+00  0.00000000E+00
  0.00000000E+00  0.00000000E+00  0.00000000E+00
  0.00000000E+00  0.00000000E+00  0.00000000E+00
  0.00000000E+00  0.00000000E+00  0.00000000E+00
  0.00000000E+00  0.00000000E+00  0.00000000E+00
  0.00000000E+00  0.00000000E+00  0.00000000E+00
  0.00000000E+00  0.00000000E+00  0.00000000E+00
  0.00000000E+00  0.00000000E+00  0.00000000E+00
