Bi1Er5Pt2   [BCT,BCT2,tI32] (STD_PRIM do
   1.00000000000000     
    -3.8578322955970821    3.8578322955970821    6.8145975842833675
     3.8578322955970821   -3.8578322955970821    6.8145975842833675
     3.8578322955970821    3.8578322955970821   -6.8145975842833675
   2  10   4
Direct
  0.7500000000000000  0.7500000000000000  0.0000000000000000
  0.2500000000000000  0.2500000000000000  0.0000000000000000
 -0.0000000000000000  0.0000000000000000  0.0000000000000000
  0.5000000000000000  0.5000000000000000 -0.0000000000000000
  0.2071904247193726  0.0178297478025564  0.5000000000000000
  0.5178297478025564  0.7071904247193725  0.5000000000000000
  0.7071904247193725  0.2071904247193726  0.1893606769168233
  0.0178297478025564  0.5178297478025564  0.8106393230831768
  0.9821702521974436  0.4821702521974436  0.1893606769168233
  0.2928095752806274  0.7928095752806275  0.8106393230831768
  0.4821702521974436  0.2928095752806274  0.5000000000000000
  0.7928095752806275  0.9821702521974436  0.5000000000000000
  0.1396154007578950  0.3603845992421050  0.5000000000000000
  0.8603845992421050  0.6396154007578950  0.5000000000000000
  0.6396154007578950  0.1396154007578950  0.7792308015157972
  0.3603845992421050  0.8603845992421050  0.2207691984842029
 
  0.00000000E+00  0.00000000E+00  0.00000000E+00
  0.00000000E+00  0.00000000E+00  0.00000000E+00
  0.00000000E+00  0.00000000E+00  0.00000000E+00
  0.00000000E+00  0.00000000E+00  0.00000000E+00
  0.00000000E+00  0.00000000E+00  0.00000000E+00
  0.00000000E+00  0.00000000E+00  0.00000000E+00
  0.00000000E+00  0.00000000E+00  0.00000000E+00
  0.00000000E+00  0.00000000E+00  0.00000000E+00
  0.00000000E+00  0.00000000E+00  0.00000000E+00
  0.00000000E+00  0.00000000E+00  0.00000000E+00
  0.00000000E+00  0.00000000E+00  0.00000000E+00
  0.00000000E+00  0.00000000E+00  0.00000000E+00
  0.00000000E+00  0.00000000E+00  0.00000000E+00
  0.00000000E+00  0.00000000E+00  0.00000000E+00
  0.00000000E+00  0.00000000E+00  0.00000000E+00
  0.00000000E+00  0.00000000E+00  0.00000000E+00
