N2Ta1   [CUB,CUB,cP12] (STD_PRIM doi:10.
   1.00000000000000     
     5.1488266481773648   -0.0000000000000000    0.0000000000000000
     0.0000000000000000    5.1488266481773648   -0.0000000000000000
    -0.0000000000000000    0.0000000000000000    5.1488266481773648
   8   4
Direct
  0.3562355800901559  0.3562355800901559  0.3562355800901559
  0.1437644199098441  0.6437644199098440  0.8562355800901560
  0.6437644199098440  0.8562355800901560  0.1437644199098441
  0.8562355800901560  0.1437644199098441  0.6437644199098440
  0.6437644199098440  0.6437644199098440  0.6437644199098440
  0.8562355800901560  0.3562355800901559  0.1437644199098441
  0.3562355800901559  0.1437644199098441  0.8562355800901560
  0.1437644199098441  0.8562355800901560  0.3562355800901559
 -0.0000000000000000 -0.0000000000000000  0.0000000000000000
  0.5000000000000000 -0.0000000000000000  0.5000000000000000
 -0.0000000000000000  0.5000000000000000  0.5000000000000000
  0.5000000000000000  0.5000000000000000  0.0000000000000000
 
  0.00000000E+00  0.00000000E+00  0.00000000E+00
  0.00000000E+00  0.00000000E+00  0.00000000E+00
  0.00000000E+00  0.00000000E+00  0.00000000E+00
  0.00000000E+00  0.00000000E+00  0.00000000E+00
  0.00000000E+00  0.00000000E+00  0.00000000E+00
  0.00000000E+00  0.00000000E+00  0.00000000E+00
  0.00000000E+00  0.00000000E+00  0.00000000E+00
  0.00000000E+00  0.00000000E+00  0.00000000E+00
  0.00000000E+00  0.00000000E+00  0.00000000E+00
  0.00000000E+00  0.00000000E+00  0.00000000E+00
  0.00000000E+00  0.00000000E+00  0.00000000E+00
  0.00000000E+00  0.00000000E+00  0.00000000E+00
