Bi2Co1Hf6   [HEX,HEX,hP9] (STD_PRIM doi:
   1.00000000000000     
     3.9326999860772505   -6.8117334287953319    0.0000000000000000
     3.9326999860772505    6.8117334287953319    0.0000000000000000
     0.0000000000000000    0.0000000000000000    3.6000689946092725
   2   1   6
Direct
  0.3333251783526343  0.6666718966476081  0.0000000000000000
  0.6666718966476081  0.3333251783526343  0.0000000000000000
  0.9999989705604857  0.9999989705604857  0.5000000000000000
  0.6103808427217660  0.9999929609406043  0.5000000000000000
  0.9999929609406043  0.6103808427217660  0.5000000000000000
  0.3896319750479441  0.3896319750479441  0.5000000000000000
  0.2331570490016561  0.0000073566983326  0.0000000000000000
  0.0000073566983326  0.2331570490016561  0.0000000000000000
  0.7668337700289688  0.7668337700289688  0.0000000000000000
 
  0.00000000E+00  0.00000000E+00  0.00000000E+00
  0.00000000E+00  0.00000000E+00  0.00000000E+00
  0.00000000E+00  0.00000000E+00  0.00000000E+00
  0.00000000E+00  0.00000000E+00  0.00000000E+00
  0.00000000E+00  0.00000000E+00  0.00000000E+00
  0.00000000E+00  0.00000000E+00  0.00000000E+00
  0.00000000E+00  0.00000000E+00  0.00000000E+00
  0.00000000E+00  0.00000000E+00  0.00000000E+00
  0.00000000E+00  0.00000000E+00  0.00000000E+00
