S4Sn1Sr2   [ORCC,ORCC,oS28] (STD_PRIM do
   1.00000000000000     
     3.6679773781370617   -5.2663403676369045    0.0000000000000000
     3.6679773781370617    5.2663403676369045    0.0000000000000000
     0.0000000000000000    0.0000000000000000   10.1531963743321132
   8   2   4
Direct
  0.9520420691965765  0.0907498363444749  0.7500000000000000
  0.0907498363444749  0.9520420691965765  0.2500000000000000
  0.5008869416034565  0.3798916726016803  0.7500000000000000
  0.3798916726016803  0.5008869416034565  0.2500000000000000
  0.1067311125668244  0.6471885108585047  0.9453146859471472
  0.6471885108585047  0.1067311125668244  0.0546853140528527
  0.6471885108585047  0.1067311125668244  0.4453146859471472
  0.1067311125668244  0.6471885108585047  0.5546853140528528
  0.9021867956382759  0.4576042947204796  0.7500000000000000
  0.4576042947204796  0.9021867956382759  0.2500000000000000
  0.4781669087514466  0.8565925977333154  0.7500000000000000
  0.8565925977333154  0.4781669087514466  0.2500000000000000
  0.2076498182798188  0.2076498182798188  0.0000000000000000
  0.2076498182798188  0.2076498182798188  0.5000000000000000
 
  0.00000000E+00  0.00000000E+00  0.00000000E+00
  0.00000000E+00  0.00000000E+00  0.00000000E+00
  0.00000000E+00  0.00000000E+00  0.00000000E+00
  0.00000000E+00  0.00000000E+00  0.00000000E+00
  0.00000000E+00  0.00000000E+00  0.00000000E+00
  0.00000000E+00  0.00000000E+00  0.00000000E+00
  0.00000000E+00  0.00000000E+00  0.00000000E+00
  0.00000000E+00  0.00000000E+00  0.00000000E+00
  0.00000000E+00  0.00000000E+00  0.00000000E+00
  0.00000000E+00  0.00000000E+00  0.00000000E+00
  0.00000000E+00  0.00000000E+00  0.00000000E+00
  0.00000000E+00  0.00000000E+00  0.00000000E+00
  0.00000000E+00  0.00000000E+00  0.00000000E+00
  0.00000000E+00  0.00000000E+00  0.00000000E+00
