Ge1Ho1Rh1   [ORC,ORC,oP12] (STD_PRIM doi
   1.00000000000000     
     4.3202809756485765   -0.0000000000000000    0.0000000000000000
     0.0000000000000000    6.9094433728241089    0.0000000000000000
     0.0000000000000000    0.0000000000000000    7.5135217896598316
   4   4   4
Direct
  0.2500000000000000  0.2881979480626656  0.6012988849886938
  0.7500000000000000  0.2118020519373344  0.1012988849886937
  0.7500000000000000  0.7118020519373345  0.3987011150113063
  0.2500000000000000  0.7881979480626655  0.8987011150113062
  0.2500000000000000  0.9995601780535727  0.3023324864348110
  0.7500000000000000  0.5004398219464273  0.8023324864348110
  0.7500000000000000  0.0004398219464273  0.6976675135651890
  0.2500000000000000  0.4995601780535727  0.1976675135651890
  0.2500000000000000  0.1571957897923566  0.9294920220020594
  0.7500000000000000  0.3428042102076435  0.4294920220020594
  0.7500000000000000  0.8428042102076434  0.0705079779979406
  0.2500000000000000  0.6571957897923566  0.5705079779979406
 
  0.00000000E+00  0.00000000E+00  0.00000000E+00
  0.00000000E+00  0.00000000E+00  0.00000000E+00
  0.00000000E+00  0.00000000E+00  0.00000000E+00
  0.00000000E+00  0.00000000E+00  0.00000000E+00
  0.00000000E+00  0.00000000E+00  0.00000000E+00
  0.00000000E+00  0.00000000E+00  0.00000000E+00
  0.00000000E+00  0.00000000E+00  0.00000000E+00
  0.00000000E+00  0.00000000E+00  0.00000000E+00
  0.00000000E+00  0.00000000E+00  0.00000000E+00
  0.00000000E+00  0.00000000E+00  0.00000000E+00
  0.00000000E+00  0.00000000E+00  0.00000000E+00
  0.00000000E+00  0.00000000E+00  0.00000000E+00
