Ru1Tb3   [ORC,ORC,oP16] (STD_PRIM doi:10
   1.00000000000000     
     6.3364806553910720   -0.0000000000000000    0.0000000000000000
    -0.0000000000000000    7.2838739400049590    0.0000000000000000
     0.0000000000000000    0.0000000000000000    9.2742897558459934
   4  12
Direct
  0.5417390886737207  0.3838828012845305  0.7500000000000000
  0.0417390886737207  0.1161171987154695  0.2500000000000000
  0.4582609113262793  0.6161171987154694  0.2500000000000000
  0.9582609113262793  0.8838828012845306  0.7500000000000000
  0.8296481723145677  0.1765993376116033  0.9338125989864039
  0.3296481723145748  0.3234006623883967  0.0661874010135962
  0.1703518276854251  0.8234006623883966  0.4338125989864038
  0.6703518276854323  0.6765993376116034  0.5661874010135961
  0.1703518276854251  0.8234006623883966  0.0661874010135962
  0.6703518276854323  0.6765993376116034  0.9338125989864039
  0.8296481723145677  0.1765993376116033  0.5661874010135961
  0.3296481723145748  0.3234006623883967  0.4338125989864038
  0.3605124104575043  0.0411161018094960  0.7500000000000000
  0.8605124104575042  0.4588838981905040  0.2500000000000000
  0.6394875895424958  0.9588838981905041  0.2500000000000000
  0.1394875895424958  0.5411161018094959  0.7500000000000000
 
  0.00000000E+00  0.00000000E+00  0.00000000E+00
  0.00000000E+00  0.00000000E+00  0.00000000E+00
  0.00000000E+00  0.00000000E+00  0.00000000E+00
  0.00000000E+00  0.00000000E+00  0.00000000E+00
  0.00000000E+00  0.00000000E+00  0.00000000E+00
  0.00000000E+00  0.00000000E+00  0.00000000E+00
  0.00000000E+00  0.00000000E+00  0.00000000E+00
  0.00000000E+00  0.00000000E+00  0.00000000E+00
  0.00000000E+00  0.00000000E+00  0.00000000E+00
  0.00000000E+00  0.00000000E+00  0.00000000E+00
  0.00000000E+00  0.00000000E+00  0.00000000E+00
  0.00000000E+00  0.00000000E+00  0.00000000E+00
  0.00000000E+00  0.00000000E+00  0.00000000E+00
  0.00000000E+00  0.00000000E+00  0.00000000E+00
  0.00000000E+00  0.00000000E+00  0.00000000E+00
  0.00000000E+00  0.00000000E+00  0.00000000E+00
