Al1Li5O4   [ORC,ORC,oP20] (STD_PRIM doi:
   1.00000000000000     
     4.6705263156379848   -0.0000000000000000    0.0000000000000000
    -0.0000000000000000    6.3606577122217853    0.0000000000000000
     0.0000000000000000    0.0000000000000000    6.4866020118844228
   2  10   8
Direct
  0.2248995347983126  0.7500000000000000  0.2500000000000000
  0.7751004652016873  0.2500000000000000  0.7500000000000000
  0.2548873680434924  0.4886940033763907  0.5527360783086673
  0.2548873680434924  0.0113059966236093  0.9472639216913327
  0.7451126319565077  0.9886940033763908  0.4472639216913326
  0.7451126319565077  0.5113059966236092  0.0527360783086674
  0.7451126319565077  0.5113059966236092  0.4472639216913326
  0.7451126319565077  0.9886940033763908  0.0527360783086674
  0.2548873680434924  0.0113059966236093  0.5527360783086673
  0.2548873680434924  0.4886940033763907  0.9472639216913327
  0.2021135548298622  0.2500000000000000  0.2500000000000000
  0.7978864451701378  0.7500000000000000  0.7500000000000000
  0.4288986874828249  0.9860719524168144  0.2500000000000000
  0.4288986874828249  0.5139280475831856  0.2500000000000000
  0.5711013125171751  0.4860719524168143  0.7500000000000000
  0.5711013125171751  0.0139280475831856  0.7500000000000000
  0.0165605507343124  0.7500000000000000  0.0182833096584879
  0.0165605507343124  0.7500000000000000  0.4817166903415121
  0.9834394492656876  0.2500000000000000  0.9817166903415121
  0.9834394492656876  0.2500000000000000  0.5182833096584879
 
  0.00000000E+00  0.00000000E+00  0.00000000E+00
  0.00000000E+00  0.00000000E+00  0.00000000E+00
  0.00000000E+00  0.00000000E+00  0.00000000E+00
  0.00000000E+00  0.00000000E+00  0.00000000E+00
  0.00000000E+00  0.00000000E+00  0.00000000E+00
  0.00000000E+00  0.00000000E+00  0.00000000E+00
  0.00000000E+00  0.00000000E+00  0.00000000E+00
  0.00000000E+00  0.00000000E+00  0.00000000E+00
  0.00000000E+00  0.00000000E+00  0.00000000E+00
  0.00000000E+00  0.00000000E+00  0.00000000E+00
  0.00000000E+00  0.00000000E+00  0.00000000E+00
  0.00000000E+00  0.00000000E+00  0.00000000E+00
  0.00000000E+00  0.00000000E+00  0.00000000E+00
  0.00000000E+00  0.00000000E+00  0.00000000E+00
  0.00000000E+00  0.00000000E+00  0.00000000E+00
  0.00000000E+00  0.00000000E+00  0.00000000E+00
  0.00000000E+00  0.00000000E+00  0.00000000E+00
  0.00000000E+00  0.00000000E+00  0.00000000E+00
  0.00000000E+00  0.00000000E+00  0.00000000E+00
  0.00000000E+00  0.00000000E+00  0.00000000E+00
