Al16Hf6Pt7   [FCC,FCC,cF116] (STD_PRIM d
   1.22474500000000     
     0.0000000000000000    5.0401574437996448    5.0401574437996448
     5.0401574437996448    0.0000000000000000    5.0401574437996448
     5.0401574437996448    5.0401574437996448    0.0000000000000000
  16   6   7
Direct
  0.1200325220016012  0.1200325220016012  0.1200325220016012
  0.6399024339952035  0.1200325220016012  0.1200325220016012
  0.1200325220016012  0.1200325220016012  0.6399024339952035
  0.1200325220016012  0.6399024339952035  0.1200325220016012
  0.3600975660047965  0.8799674779983988  0.8799674779983988
  0.8799674779983988  0.8799674779983988  0.8799674779983988
  0.8799674779983988  0.8799674779983988  0.3600975660047965
  0.8799674779983988  0.3600975660047965  0.8799674779983988
  0.3346874618359905  0.3346874618359905  0.3346874618359905
  0.9959376144920284  0.3346874618359905  0.3346874618359905
  0.3346874618359905  0.3346874618359905  0.9959376144920284
  0.3346874618359905  0.9959376144920284  0.3346874618359905
  0.0040623855079716  0.6653125381640095  0.6653125381640095
  0.6653125381640095  0.6653125381640095  0.6653125381640095
  0.6653125381640095  0.6653125381640095  0.0040623855079716
  0.6653125381640095  0.0040623855079716  0.6653125381640095
  0.3190469220696244  0.6809530779303756  0.3190469220696244
  0.6809530779303756  0.3190469220696244  0.6809530779303756
  0.3190469220696244  0.3190469220696244  0.6809530779303756
  0.6809530779303756  0.6809530779303756  0.3190469220696244
  0.6809530779303756  0.3190469220696244  0.3190469220696244
  0.3190469220696244  0.6809530779303756  0.6809530779303756
  0.0000000000000000  0.0000000000000000  0.0000000000000000
  0.0000000000000000  0.5000000000000000  0.0000000000000000
  0.5000000000000000  0.0000000000000000  0.5000000000000000
  0.0000000000000000  0.0000000000000000  0.5000000000000000
  0.5000000000000000  0.5000000000000000  0.0000000000000000
  0.5000000000000000  0.0000000000000000  0.0000000000000000
  0.0000000000000000  0.5000000000000000  0.5000000000000000
 
  0.00000000E+00  0.00000000E+00  0.00000000E+00
  0.00000000E+00  0.00000000E+00  0.00000000E+00
  0.00000000E+00  0.00000000E+00  0.00000000E+00
  0.00000000E+00  0.00000000E+00  0.00000000E+00
  0.00000000E+00  0.00000000E+00  0.00000000E+00
  0.00000000E+00  0.00000000E+00  0.00000000E+00
  0.00000000E+00  0.00000000E+00  0.00000000E+00
  0.00000000E+00  0.00000000E+00  0.00000000E+00
  0.00000000E+00  0.00000000E+00  0.00000000E+00
  0.00000000E+00  0.00000000E+00  0.00000000E+00
  0.00000000E+00  0.00000000E+00  0.00000000E+00
  0.00000000E+00  0.00000000E+00  0.00000000E+00
  0.00000000E+00  0.00000000E+00  0.00000000E+00
  0.00000000E+00  0.00000000E+00  0.00000000E+00
  0.00000000E+00  0.00000000E+00  0.00000000E+00
  0.00000000E+00  0.00000000E+00  0.00000000E+00
  0.00000000E+00  0.00000000E+00  0.00000000E+00
  0.00000000E+00  0.00000000E+00  0.00000000E+00
  0.00000000E+00  0.00000000E+00  0.00000000E+00
  0.00000000E+00  0.00000000E+00  0.00000000E+00
  0.00000000E+00  0.00000000E+00  0.00000000E+00
  0.00000000E+00  0.00000000E+00  0.00000000E+00
  0.00000000E+00  0.00000000E+00  0.00000000E+00
  0.00000000E+00  0.00000000E+00  0.00000000E+00
  0.00000000E+00  0.00000000E+00  0.00000000E+00
  0.00000000E+00  0.00000000E+00  0.00000000E+00
  0.00000000E+00  0.00000000E+00  0.00000000E+00
  0.00000000E+00  0.00000000E+00  0.00000000E+00
  0.00000000E+00  0.00000000E+00  0.00000000E+00
