Co1Dy1Sn1   [ORC,ORC,oP12] (STD_PRIM doi
   1.00000000000000     
     4.6449463215655991    0.0000000000000000    0.0000000000000000
     0.0000000000000000    7.4578802265678350    0.0000000000000000
     0.0000000000000000    0.0000000000000000    7.8196291680150294
   4   4   4
Direct
  0.2500000000000000  0.1574096419485271  0.4292990831389719
  0.7500000000000000  0.3425903580514729  0.9292990831389719
  0.7500000000000000  0.8425903580514729  0.5707009168610281
  0.2500000000000000  0.6574096419485271  0.0707009168610281
  0.2500000000000000  0.9878963015018432  0.7826157849481692
  0.7500000000000000  0.5121036984981568  0.2826157849481691
  0.7500000000000000  0.0121036984981568  0.2173842150518308
  0.2500000000000000  0.4878963015018432  0.7173842150518308
  0.2500000000000000  0.7757941983956773  0.4046609509309730
  0.7500000000000000  0.7242058016043227  0.9046609509309731
  0.7500000000000000  0.2242058016043227  0.5953390490690269
  0.2500000000000000  0.2757941983956773  0.0953390490690270
 
  0.00000000E+00  0.00000000E+00  0.00000000E+00
  0.00000000E+00  0.00000000E+00  0.00000000E+00
  0.00000000E+00  0.00000000E+00  0.00000000E+00
  0.00000000E+00  0.00000000E+00  0.00000000E+00
  0.00000000E+00  0.00000000E+00  0.00000000E+00
  0.00000000E+00  0.00000000E+00  0.00000000E+00
  0.00000000E+00  0.00000000E+00  0.00000000E+00
  0.00000000E+00  0.00000000E+00  0.00000000E+00
  0.00000000E+00  0.00000000E+00  0.00000000E+00
  0.00000000E+00  0.00000000E+00  0.00000000E+00
  0.00000000E+00  0.00000000E+00  0.00000000E+00
  0.00000000E+00  0.00000000E+00  0.00000000E+00
