Gd2O2Se1   [HEX,HEX,hP5] (STD_PRIM doi:1
   1.00000000000000     
     1.9585162498262247   -3.3922561172329617    0.0000038983369060
     1.9585193696314771    3.3922578721705534   -0.0000045664844357
    -0.0000011600011736   -0.0000100017359546    6.9303665210905327
   2   2   1
Direct
  0.3333319826755793  0.6666680605604531  0.2895830088104824
  0.6666680173244206  0.3333319394395469  0.7104169911895175
  0.3333339951268999  0.6666660334437468  0.6258356194143021
  0.6666660048731001  0.3333339665562533  0.3741643805856980
  0.0000000000000000 -0.0000000000000000  0.0000000000000000
 
  0.00000000E+00  0.00000000E+00  0.00000000E+00
  0.00000000E+00  0.00000000E+00  0.00000000E+00
  0.00000000E+00  0.00000000E+00  0.00000000E+00
  0.00000000E+00  0.00000000E+00  0.00000000E+00
  0.00000000E+00  0.00000000E+00  0.00000000E+00
