Al1Sn3Zr5   [HEX,HEX,hP18] (STD_PRIM doi
   1.00000000000000     
     4.3887336856193446   -7.6015097243817280    0.0000000000000000
     4.3887414575936381    7.6015142115331766    0.0000000000000000
     0.0000000000000000    0.0000000000000000    5.9349486435702641
   2   6  10
Direct
  0.0000000000000000 -0.0000000000000000  0.0000000000000000
  0.0000000000000000  0.0000000000000000  0.5000000000000000
  0.9999973760590088  0.3855159061573217  0.2500000000000000
  0.6144814699016872  0.6144840938426783  0.2500000000000000
  0.3855250247616755  0.0000000000000000  0.2500000000000000
  0.0000026239409912  0.6144840938426783  0.7500000000000000
  0.3855185300983129  0.3855159061573217  0.7500000000000000
  0.6144749752383245 -0.0000000000000000  0.7500000000000000
  0.6666703972440382  0.3333407944880836 -0.0000000000000000
  0.3333296027559618  0.6666592055119165  0.5000000000000000
  0.3333296027559618  0.6666592055119165  0.0000000000000000
  0.6666703972440382  0.3333407944880836  0.5000000000000000
  0.0000034078131261  0.7309106284011818  0.2500000000000000
  0.2690927794119444  0.2690893715988182  0.2500000000000000
  0.7309105299295762  0.0000000000000000  0.2500000000000000
  0.9999965921868739  0.2690893715988182  0.7500000000000000
  0.7309072205880557  0.7309106284011818  0.7500000000000000
  0.2690894700704239 -0.0000000000000000  0.7500000000000000
 
  0.00000000E+00  0.00000000E+00  0.00000000E+00
  0.00000000E+00  0.00000000E+00  0.00000000E+00
  0.00000000E+00  0.00000000E+00  0.00000000E+00
  0.00000000E+00  0.00000000E+00  0.00000000E+00
  0.00000000E+00  0.00000000E+00  0.00000000E+00
  0.00000000E+00  0.00000000E+00  0.00000000E+00
  0.00000000E+00  0.00000000E+00  0.00000000E+00
  0.00000000E+00  0.00000000E+00  0.00000000E+00
  0.00000000E+00  0.00000000E+00  0.00000000E+00
  0.00000000E+00  0.00000000E+00  0.00000000E+00
  0.00000000E+00  0.00000000E+00  0.00000000E+00
  0.00000000E+00  0.00000000E+00  0.00000000E+00
  0.00000000E+00  0.00000000E+00  0.00000000E+00
  0.00000000E+00  0.00000000E+00  0.00000000E+00
  0.00000000E+00  0.00000000E+00  0.00000000E+00
  0.00000000E+00  0.00000000E+00  0.00000000E+00
  0.00000000E+00  0.00000000E+00  0.00000000E+00
  0.00000000E+00  0.00000000E+00  0.00000000E+00
