C1O3Sr1   [ORC,ORC,oP20] (STD_PRIM doi:1
   1.00000000000000     
     5.1716578301488028   -0.0000000000000000    0.0000000000000000
    -0.0000000000000000    6.1247063507661279    0.0000000000000000
     0.0000000000000000    0.0000000000000000    8.4978938076651165
   4  12   4
Direct
  0.2500000000000000  0.9149599478788333  0.2412494129000353
  0.7500000000000000  0.5850400521211667  0.7412494129000353
  0.7500000000000000  0.0850400521211667  0.7587505870999647
  0.2500000000000000  0.4149599478788333  0.2587505870999647
  0.2500000000000000  0.9063850819203033  0.0886919242668355
  0.7500000000000000  0.5936149180796967  0.5886919242668355
  0.7500000000000000  0.0936149180796966  0.9113080757331645
  0.2500000000000000  0.4063850819203034  0.4113080757331645
  0.4676213151097421  0.9138750880290183  0.3182537408589367
  0.5323786848902580  0.5861249119709817  0.8182537408589367
  0.9676213151097420  0.0861249119709817  0.6817462591410633
  0.0323786848902579  0.4138750880290183  0.1817462591410633
  0.5323786848902580  0.0861249119709817  0.6817462591410633
  0.4676213151097421  0.4138750880290183  0.1817462591410633
  0.0323786848902579  0.9138750880290183  0.3182537408589367
  0.9676213151097420  0.5861249119709817  0.8182537408589367
  0.2500000000000000  0.7571494143991706  0.5840189471064232
  0.7500000000000000  0.7428505856008294  0.0840189471064233
  0.7500000000000000  0.2428505856008293  0.4159810528935767
  0.2500000000000000  0.2571494143991707  0.9159810528935768
 
  0.00000000E+00  0.00000000E+00  0.00000000E+00
  0.00000000E+00  0.00000000E+00  0.00000000E+00
  0.00000000E+00  0.00000000E+00  0.00000000E+00
  0.00000000E+00  0.00000000E+00  0.00000000E+00
  0.00000000E+00  0.00000000E+00  0.00000000E+00
  0.00000000E+00  0.00000000E+00  0.00000000E+00
  0.00000000E+00  0.00000000E+00  0.00000000E+00
  0.00000000E+00  0.00000000E+00  0.00000000E+00
  0.00000000E+00  0.00000000E+00  0.00000000E+00
  0.00000000E+00  0.00000000E+00  0.00000000E+00
  0.00000000E+00  0.00000000E+00  0.00000000E+00
  0.00000000E+00  0.00000000E+00  0.00000000E+00
  0.00000000E+00  0.00000000E+00  0.00000000E+00
  0.00000000E+00  0.00000000E+00  0.00000000E+00
  0.00000000E+00  0.00000000E+00  0.00000000E+00
  0.00000000E+00  0.00000000E+00  0.00000000E+00
  0.00000000E+00  0.00000000E+00  0.00000000E+00
  0.00000000E+00  0.00000000E+00  0.00000000E+00
  0.00000000E+00  0.00000000E+00  0.00000000E+00
  0.00000000E+00  0.00000000E+00  0.00000000E+00
