O5V2   [ORC,ORC,oP14] (STD_PRIM doi:10.1
   1.01639600000000     
     3.5178851179076052    0.0000000000000000    0.0000000000000000
     0.0000000000000000    4.6797309683156545    0.0000000000000000
     0.0000000000000000    0.0000000000000000   11.3859076773147603
  10   4
Direct
  0.7500000000000000  0.4469534970671605  0.1058425448130429
  0.7500000000000000  0.4469534970671605  0.3941574551869571
  0.2500000000000000  0.5531923492744139  0.8941566602605924
  0.2500000000000000  0.5531923492744139  0.6058433397394076
  0.7500000000000000  0.9915796383610547  0.9317129400781941
  0.7500000000000000  0.9915796383610547  0.5682870599218059
  0.2500000000000000  0.0085622550388942  0.0682857524446998
  0.2500000000000000  0.0085622550388942  0.4317142475553215
  0.7500000000000000  0.0021136092685892  0.2500000000000000
  0.2500000000000000  0.9980288519768992  0.7500000000000000
  0.7500000000000000  0.1109438005438248  0.1016304176741099
  0.7500000000000000  0.1109438005438248  0.3983695823258830
  0.2500000000000000  0.8891972290919030  0.8983691234848041
  0.2500000000000000  0.8891972290919030  0.6016308765151959
 
  0.00000000E+00  0.00000000E+00  0.00000000E+00
  0.00000000E+00  0.00000000E+00  0.00000000E+00
  0.00000000E+00  0.00000000E+00  0.00000000E+00
  0.00000000E+00  0.00000000E+00  0.00000000E+00
  0.00000000E+00  0.00000000E+00  0.00000000E+00
  0.00000000E+00  0.00000000E+00  0.00000000E+00
  0.00000000E+00  0.00000000E+00  0.00000000E+00
  0.00000000E+00  0.00000000E+00  0.00000000E+00
  0.00000000E+00  0.00000000E+00  0.00000000E+00
  0.00000000E+00  0.00000000E+00  0.00000000E+00
  0.00000000E+00  0.00000000E+00  0.00000000E+00
  0.00000000E+00  0.00000000E+00  0.00000000E+00
  0.00000000E+00  0.00000000E+00  0.00000000E+00
  0.00000000E+00  0.00000000E+00  0.00000000E+00
