C1K4O4   [TET,TET,tP18] (STD_PRIM doi:10
   1.00000000000000     
     7.2150369005792196   -0.0000003789958796   -0.0000000000000000
     0.0000003789958796    7.2150369005792196   -0.0000000000000000
     0.0000000000000000   -0.0000000000000000    5.5241964189404884
   2   8   8
Direct
  0.2500000000000000  0.2500000000000000  0.7500000000000000
  0.7500000000000000  0.7500000000000000  0.2500000000000000
  0.7482319382515007  0.4709945186150159  0.8907600556775420
  0.7517680617484993  0.0290054813849841  0.8907600556775420
  0.5290054813849842  0.2482319382515006  0.3907600556775420
  0.9709945186150158  0.2517680617484994  0.3907600556775420
  0.2517680617484994  0.5290054813849842  0.1092399443224580
  0.2482319382515006  0.9709945186150158  0.1092399443224580
  0.4709945186150159  0.7517680617484993  0.6092399443224580
  0.0290054813849841  0.7482319382515007  0.6092399443224580
  0.2483048614196232  0.0848557626370792  0.6023940119971327
  0.2516951385803768  0.4151442373629208  0.6023940119971327
  0.9151442373629207  0.7483048614196232  0.1023940119971327
  0.5848557626370793  0.7516951385803768  0.1023940119971327
  0.7516951385803768  0.9151442373629207  0.3976059880028673
  0.7483048614196232  0.5848557626370793  0.3976059880028673
  0.0848557626370792  0.2516951385803768  0.8976059880028673
  0.4151442373629208  0.2483048614196232  0.8976059880028673
 
  0.00000000E+00  0.00000000E+00  0.00000000E+00
  0.00000000E+00  0.00000000E+00  0.00000000E+00
  0.00000000E+00  0.00000000E+00  0.00000000E+00
  0.00000000E+00  0.00000000E+00  0.00000000E+00
  0.00000000E+00  0.00000000E+00  0.00000000E+00
  0.00000000E+00  0.00000000E+00  0.00000000E+00
  0.00000000E+00  0.00000000E+00  0.00000000E+00
  0.00000000E+00  0.00000000E+00  0.00000000E+00
  0.00000000E+00  0.00000000E+00  0.00000000E+00
  0.00000000E+00  0.00000000E+00  0.00000000E+00
  0.00000000E+00  0.00000000E+00  0.00000000E+00
  0.00000000E+00  0.00000000E+00  0.00000000E+00
  0.00000000E+00  0.00000000E+00  0.00000000E+00
  0.00000000E+00  0.00000000E+00  0.00000000E+00
  0.00000000E+00  0.00000000E+00  0.00000000E+00
  0.00000000E+00  0.00000000E+00  0.00000000E+00
  0.00000000E+00  0.00000000E+00  0.00000000E+00
  0.00000000E+00  0.00000000E+00  0.00000000E+00
