K1O6Os2   [FCC,FCC,cF72] (STD_PRIM doi:1
   1.22474500000000     
     0.0000000000000000    4.1828717864716509    4.1828717864716509
     4.1828717864716509   -0.0000000000000000    4.1828717864716509
     4.1828717864716509    4.1828717864716509   -0.0000000000000000
   2  12   4
Direct
  0.2500000000000000  0.2500000000000000  0.2500000000000000
  0.5000000000000000  0.5000000000000000  0.5000000000000000
  0.1936535401064918  0.8063464598935082  0.8063464598935082
  0.8063464598935082  0.1936535401064918  0.1936535401064918
  0.8063464598935082  0.1936535401064918  0.8063464598935082
  0.1936535401064918  0.8063464598935082  0.1936535401064918
  0.1936535401064918  0.1936535401064918  0.8063464598935082
  0.8063464598935082  0.8063464598935082  0.1936535401064918
  0.5563016529868817  0.9436983470131183  0.9436983470131183
  0.9436983470131183  0.5563016529868817  0.5563016529868817
  0.9436983470131183  0.5563016529868817  0.9436983470131183
  0.5563016529868817  0.9436983470131183  0.5563016529868817
  0.5563016529868817  0.5563016529868817  0.9436983470131183
  0.9436983470131183  0.9436983470131183  0.5563016529868817
  0.8749982675792973  0.8749982675792973  0.3750051972620937
  0.8749982675792973  0.8749982675792973  0.8749982675792973
  0.3750051972620937  0.8749982675792973  0.8749982675792973
  0.8749982675792973  0.3750051972620937  0.8749982675792973
 
  0.00000000E+00  0.00000000E+00  0.00000000E+00
  0.00000000E+00  0.00000000E+00  0.00000000E+00
  0.00000000E+00  0.00000000E+00  0.00000000E+00
  0.00000000E+00  0.00000000E+00  0.00000000E+00
  0.00000000E+00  0.00000000E+00  0.00000000E+00
  0.00000000E+00  0.00000000E+00  0.00000000E+00
  0.00000000E+00  0.00000000E+00  0.00000000E+00
  0.00000000E+00  0.00000000E+00  0.00000000E+00
  0.00000000E+00  0.00000000E+00  0.00000000E+00
  0.00000000E+00  0.00000000E+00  0.00000000E+00
  0.00000000E+00  0.00000000E+00  0.00000000E+00
  0.00000000E+00  0.00000000E+00  0.00000000E+00
  0.00000000E+00  0.00000000E+00  0.00000000E+00
  0.00000000E+00  0.00000000E+00  0.00000000E+00
  0.00000000E+00  0.00000000E+00  0.00000000E+00
  0.00000000E+00  0.00000000E+00  0.00000000E+00
  0.00000000E+00  0.00000000E+00  0.00000000E+00
  0.00000000E+00  0.00000000E+00  0.00000000E+00
