Ho1Si1   [ORCC,ORCC,oS8] (STD_PRIM doi:1
   1.00000000000000     
     2.1284758422503773   -5.2487132597718542    0.0000000000000000
     2.1284758422503773    5.2487132597718542   -0.0000000000000000
     0.0000000000000000   -0.0000000000000000    3.8242129217782823
   2   2
Direct
  0.8593252489207507  0.1406747510792493  0.7500000000000000
  0.1406747510792493  0.8593252489207507  0.2500000000000000
  0.5768183857605149  0.4231816142394851  0.7500000000000000
  0.4231816142394851  0.5768183857605149  0.2500000000000000
 
  0.00000000E+00  0.00000000E+00  0.00000000E+00
  0.00000000E+00  0.00000000E+00  0.00000000E+00
  0.00000000E+00  0.00000000E+00  0.00000000E+00
  0.00000000E+00  0.00000000E+00  0.00000000E+00
