As2Ho2Ni1   [HEX,HEX,hP10] (STD_PRIM doi
   1.00000000000000     
     2.0477627565482877   -3.5468291361889319    0.0000000000000000
     2.0477437933135323    3.5468181877602416    0.0000000000000000
     0.0000000000000000    0.0000000000000000   14.1252394241183552
   4   4   2
Direct
  0.0000000000000000  0.0000000000000000  0.0000000000000000
 -0.0000000000000000 -0.0000000000000000  0.5000000000000000
  0.6666707494139290  0.3333414988278651  0.2500000000000000
  0.3333292505860710  0.6666585011721350  0.7500000000000000
  0.3333258979286852  0.6666517958573703  0.1176056494193567
  0.6666741020713148  0.3333482041426298  0.6176056494193567
  0.6666741020713148  0.3333482041426298  0.8823943505806433
  0.3333258979286852  0.6666517958573703  0.3823943505806433
  0.0000090688016332  0.0000181376032736  0.2500000000000000
  0.9999909311983668  0.9999818623967264  0.7500000000000000
 
  0.00000000E+00  0.00000000E+00  0.00000000E+00
  0.00000000E+00  0.00000000E+00  0.00000000E+00
  0.00000000E+00  0.00000000E+00  0.00000000E+00
  0.00000000E+00  0.00000000E+00  0.00000000E+00
  0.00000000E+00  0.00000000E+00  0.00000000E+00
  0.00000000E+00  0.00000000E+00  0.00000000E+00
  0.00000000E+00  0.00000000E+00  0.00000000E+00
  0.00000000E+00  0.00000000E+00  0.00000000E+00
  0.00000000E+00  0.00000000E+00  0.00000000E+00
  0.00000000E+00  0.00000000E+00  0.00000000E+00
