Be13Dy1   [FCC,FCC,cF112] (STD_PRIM doi:
   1.22474500000000     
     0.0000000000000000    4.1561080297288839    4.1561080297288839
     4.1561080297288839   -0.0000000000000000    4.1561080297288839
     4.1561080297288839    4.1561080297288839    0.0000000000000000
  26   2
Direct
  0.0000000000000000  0.0000000000000000 -0.0000000000000000
  0.5000000000000000  0.5000000000000000  0.5000000000000000
  0.2904147791043964  0.0625927132753026  0.7095852208956036
  0.0625927132753026  0.2904147791043964  0.9374072867246973
  0.9374072867246973  0.7095852208956036  0.0625927132753026
  0.7095852208956036  0.9374072867246973  0.2904147791043964
  0.2904147791043964  0.9374072867246973  0.0625927132753026
  0.0625927132753026  0.7095852208956036  0.2904147791043964
  0.9374072867246973  0.2904147791043964  0.7095852208956036
  0.7095852208956036  0.0625927132753026  0.9374072867246973
  0.2904147791043964  0.7095852208956036  0.9374072867246973
  0.0625927132753026  0.9374072867246973  0.7095852208956036
  0.9374072867246973  0.0625927132753026  0.2904147791043964
  0.7095852208956036  0.2904147791043964  0.0625927132753026
  0.4374072867246974  0.2095852208956036  0.7904147791043964
  0.2095852208956036  0.4374072867246974  0.5625927132753027
  0.7904147791043964  0.5625927132753027  0.4374072867246974
  0.5625927132753027  0.7904147791043964  0.2095852208956036
  0.5625927132753027  0.2095852208956036  0.4374072867246974
  0.7904147791043964  0.4374072867246974  0.2095852208956036
  0.2095852208956036  0.5625927132753027  0.7904147791043964
  0.4374072867246974  0.7904147791043964  0.5625927132753027
  0.7904147791043964  0.2095852208956036  0.5625927132753027
  0.5625927132753027  0.4374072867246974  0.7904147791043964
  0.4374072867246974  0.5625927132753027  0.2095852208956036
  0.2095852208956036  0.7904147791043964  0.4374072867246974
  0.7500000000000000  0.7500000000000000  0.7500000000000000
  0.2500000000000000  0.2500000000000000  0.2500000000000000
 
  0.00000000E+00  0.00000000E+00  0.00000000E+00
  0.00000000E+00  0.00000000E+00  0.00000000E+00
  0.00000000E+00  0.00000000E+00  0.00000000E+00
  0.00000000E+00  0.00000000E+00  0.00000000E+00
  0.00000000E+00  0.00000000E+00  0.00000000E+00
  0.00000000E+00  0.00000000E+00  0.00000000E+00
  0.00000000E+00  0.00000000E+00  0.00000000E+00
  0.00000000E+00  0.00000000E+00  0.00000000E+00
  0.00000000E+00  0.00000000E+00  0.00000000E+00
  0.00000000E+00  0.00000000E+00  0.00000000E+00
  0.00000000E+00  0.00000000E+00  0.00000000E+00
  0.00000000E+00  0.00000000E+00  0.00000000E+00
  0.00000000E+00  0.00000000E+00  0.00000000E+00
  0.00000000E+00  0.00000000E+00  0.00000000E+00
  0.00000000E+00  0.00000000E+00  0.00000000E+00
  0.00000000E+00  0.00000000E+00  0.00000000E+00
  0.00000000E+00  0.00000000E+00  0.00000000E+00
  0.00000000E+00  0.00000000E+00  0.00000000E+00
  0.00000000E+00  0.00000000E+00  0.00000000E+00
  0.00000000E+00  0.00000000E+00  0.00000000E+00
  0.00000000E+00  0.00000000E+00  0.00000000E+00
  0.00000000E+00  0.00000000E+00  0.00000000E+00
  0.00000000E+00  0.00000000E+00  0.00000000E+00
  0.00000000E+00  0.00000000E+00  0.00000000E+00
  0.00000000E+00  0.00000000E+00  0.00000000E+00
  0.00000000E+00  0.00000000E+00  0.00000000E+00
  0.00000000E+00  0.00000000E+00  0.00000000E+00
  0.00000000E+00  0.00000000E+00  0.00000000E+00
