Al1F5K2   [TET,TET,tP8] (STD_PRIM doi:10
   1.00000000000000     
     6.0539404164558484    0.0000000000000000    0.0000000000000000
     0.0000000000000000    6.0539404164558484    0.0000000000000000
    -0.0000000000000000   -0.0000000000000000    3.7613781334006404
   1   5   2
Direct
  0.0000000000000000  0.0000000000000000  0.0000000000000000
  0.0000000000000000  0.0000000000000000  0.5000000000000000
  0.2117290374672607  0.2117290374672607  0.0000000000000000
  0.7882709625327393  0.7882709625327393  0.0000000000000000
  0.7882709625327393  0.2117290374672607 -0.0000000000000000
  0.2117290374672607  0.7882709625327393  0.0000000000000000
  0.0000000000000000  0.5000000000000000  0.5000000000000000
  0.5000000000000000  0.0000000000000000  0.5000000000000000
 
  0.00000000E+00  0.00000000E+00  0.00000000E+00
  0.00000000E+00  0.00000000E+00  0.00000000E+00
  0.00000000E+00  0.00000000E+00  0.00000000E+00
  0.00000000E+00  0.00000000E+00  0.00000000E+00
  0.00000000E+00  0.00000000E+00  0.00000000E+00
  0.00000000E+00  0.00000000E+00  0.00000000E+00
  0.00000000E+00  0.00000000E+00  0.00000000E+00
  0.00000000E+00  0.00000000E+00  0.00000000E+00
