Dy1Ir2Si2   [BCT,BCT2,tI10] (STD_PRIM do
   1.00000000000000     
    -2.0291608121265328    2.0291608121265328    4.9635295403286870
     2.0291608121265328   -2.0291608121265328    4.9635295403286870
     2.0291608121265328    2.0291608121265328   -4.9635295403286870
   1   2   2
Direct
 -0.0000000000000000 -0.0000000000000000  0.0000000000000000
  0.7500000000000000  0.2500000000000000  0.5000000000000000
  0.2500000000000000  0.7500000000000000  0.5000000000000000
  0.3780067920874803  0.3780067920874803 -0.0000000000000000
  0.6219932079125197  0.6219932079125197  0.0000000000000000
 
  0.00000000E+00  0.00000000E+00  0.00000000E+00
  0.00000000E+00  0.00000000E+00  0.00000000E+00
  0.00000000E+00  0.00000000E+00  0.00000000E+00
  0.00000000E+00  0.00000000E+00  0.00000000E+00
  0.00000000E+00  0.00000000E+00  0.00000000E+00
