Pb1Se2 #140 - (Pb1Se2_ICSD_174577) - Pb1
    1.000000000000000     
    -3.2445034913945778    3.2445034913945778    3.9450243895696659
     3.2445034913945778   -3.2445034913945778    3.9450243895696659
     3.2445034913945778    3.2445034913945778   -3.9450243895696659
   2   4
Direct
  0.7500000000000000  0.7500000000000000  0.0000000000000000
  0.2500000000000000  0.2500000000000000  0.0000000000000000
  0.3687431611543386  0.1312568388456614  0.5000000000000000
  0.6312568388456613  0.8687431611543387  0.5000000000000000
  0.8687431611543387  0.3687431611543386  0.2374863223086701
  0.1312568388456614  0.6312568388456613  0.7625136776913299
 
  0.00000000E+00  0.00000000E+00  0.00000000E+00
  0.00000000E+00  0.00000000E+00  0.00000000E+00
  0.00000000E+00  0.00000000E+00  0.00000000E+00
  0.00000000E+00  0.00000000E+00  0.00000000E+00
  0.00000000E+00  0.00000000E+00  0.00000000E+00
  0.00000000E+00  0.00000000E+00  0.00000000E+00
