Ca1O3Rh1   [ORC,ORC,oP20] (STD_PRIM doi:
   1.00000000000000     
     5.3727524254330516    0.0000000000000000    0.0000000000000000
    -0.0000000000000000    5.6855480836385022    0.0000000000000000
     0.0000000000000000    0.0000000000000000    7.6934097746068195
   4  12   4
Direct
  0.0167324781215318  0.0626671181246577  0.7500000000000000
  0.5167324781215318  0.4373328818753424  0.2500000000000000
  0.9832675218784682  0.9373328818753424  0.2500000000000000
  0.4832675218784682  0.5626671181246576  0.7500000000000000
  0.8931131209904273  0.4556627637840245  0.7500000000000000
  0.3931131209904272  0.0443372362159755  0.2500000000000000
  0.1068868790095728  0.5443372362159755  0.2500000000000000
  0.6068868790095727  0.9556627637840245  0.7500000000000000
  0.3046145390755524  0.3054935024711193  0.9462440276793229
  0.8046145390755524  0.1945064975288807  0.0537559723206771
  0.6953854609244476  0.6945064975288807  0.4462440276793229
  0.1953854609244476  0.8054935024711193  0.5537559723206771
  0.6953854609244476  0.6945064975288807  0.0537559723206771
  0.1953854609244476  0.8054935024711193  0.9462440276793229
  0.3046145390755524  0.3054935024711193  0.5537559723206771
  0.8046145390755524  0.1945064975288807  0.4462440276793229
  0.0000000000000000  0.5000000000000000  0.0000000000000000
  0.5000000000000000  0.0000000000000000  0.0000000000000000
  0.0000000000000000  0.5000000000000000  0.5000000000000000
  0.5000000000000000  0.0000000000000000  0.5000000000000000
 
  0.00000000E+00  0.00000000E+00  0.00000000E+00
  0.00000000E+00  0.00000000E+00  0.00000000E+00
  0.00000000E+00  0.00000000E+00  0.00000000E+00
  0.00000000E+00  0.00000000E+00  0.00000000E+00
  0.00000000E+00  0.00000000E+00  0.00000000E+00
  0.00000000E+00  0.00000000E+00  0.00000000E+00
  0.00000000E+00  0.00000000E+00  0.00000000E+00
  0.00000000E+00  0.00000000E+00  0.00000000E+00
  0.00000000E+00  0.00000000E+00  0.00000000E+00
  0.00000000E+00  0.00000000E+00  0.00000000E+00
  0.00000000E+00  0.00000000E+00  0.00000000E+00
  0.00000000E+00  0.00000000E+00  0.00000000E+00
  0.00000000E+00  0.00000000E+00  0.00000000E+00
  0.00000000E+00  0.00000000E+00  0.00000000E+00
  0.00000000E+00  0.00000000E+00  0.00000000E+00
  0.00000000E+00  0.00000000E+00  0.00000000E+00
  0.00000000E+00  0.00000000E+00  0.00000000E+00
  0.00000000E+00  0.00000000E+00  0.00000000E+00
  0.00000000E+00  0.00000000E+00  0.00000000E+00
  0.00000000E+00  0.00000000E+00  0.00000000E+00
