Ca2H1N1   [FCC,FCC,cF64] (STD_PRIM doi:1
   1.22474500000000     
     0.0000000000000000    4.1297732258382931    4.1297732258382931
     4.1297732258382931   -0.0000000000000000    4.1297732258382931
     4.1297732258382931    4.1297732258382931    0.0000000000000000
   8   4   4
Direct
  0.2619969190941500  0.2619969190941500  0.2619969190941500
  0.2619969190941500  0.2619969190941500  0.7140092427175500
  0.2619969190941500  0.7140092427175500  0.2619969190941500
  0.7140092427175500  0.2619969190941500  0.2619969190941500
  0.7380030809058500  0.7380030809058500  0.2859907572824500
  0.7380030809058500  0.7380030809058500  0.7380030809058500
  0.7380030809058500  0.2859907572824500  0.7380030809058500
  0.2859907572824500  0.7380030809058500  0.7380030809058500
 -0.0000000000000000  0.0000000000000000  0.0000000000000000
 -0.0000000000000000  0.0000000000000000  0.5000000000000000
  0.0000000000000000  0.5000000000000000  0.0000000000000000
  0.5000000000000000  0.0000000000000000 -0.0000000000000000
  0.5000000000000000  0.5000000000000000  0.5000000000000000
  0.5000000000000000  0.5000000000000000  0.0000000000000000
  0.5000000000000000 -0.0000000000000000  0.5000000000000000
 -0.0000000000000000  0.5000000000000000  0.5000000000000000
 
  0.00000000E+00  0.00000000E+00  0.00000000E+00
  0.00000000E+00  0.00000000E+00  0.00000000E+00
  0.00000000E+00  0.00000000E+00  0.00000000E+00
  0.00000000E+00  0.00000000E+00  0.00000000E+00
  0.00000000E+00  0.00000000E+00  0.00000000E+00
  0.00000000E+00  0.00000000E+00  0.00000000E+00
  0.00000000E+00  0.00000000E+00  0.00000000E+00
  0.00000000E+00  0.00000000E+00  0.00000000E+00
  0.00000000E+00  0.00000000E+00  0.00000000E+00
  0.00000000E+00  0.00000000E+00  0.00000000E+00
  0.00000000E+00  0.00000000E+00  0.00000000E+00
  0.00000000E+00  0.00000000E+00  0.00000000E+00
  0.00000000E+00  0.00000000E+00  0.00000000E+00
  0.00000000E+00  0.00000000E+00  0.00000000E+00
  0.00000000E+00  0.00000000E+00  0.00000000E+00
  0.00000000E+00  0.00000000E+00  0.00000000E+00
