Au1C2Rb1   [TET,TET,tP4] (STD_PRIM doi:1
   1.00000000000000     
     4.5788824624839597    0.0000000000000000    0.0000000000000000
     0.0000000000000000    4.5788824624839597   -0.0000000000000000
     0.0000000000000000    0.0000000000000000    5.2412413297626399
   1   2   1
Direct
  0.0000000000000000  0.0000000000000000  0.0000000000000000
  0.0000000000000000 -0.0000000000000000  0.3810786455004787
 -0.0000000000000000 -0.0000000000000000  0.6189213544995213
  0.5000000000000000  0.5000000000000000  0.5000000000000000
 
  0.00000000E+00  0.00000000E+00  0.00000000E+00
  0.00000000E+00  0.00000000E+00  0.00000000E+00
  0.00000000E+00  0.00000000E+00  0.00000000E+00
  0.00000000E+00  0.00000000E+00  0.00000000E+00
