Cl6Cs2Ge1   [FCC,FCC,cF36] (STD_PRIM doi
   1.22474500000000     
     0.0000000000000000    4.3207725043952179    4.3207725043952179
     4.3207725043952179    0.0000000000000000    4.3207725043952179
     4.3207725043952179    4.3207725043952179    0.0000000000000000
   6   2   1
Direct
  0.7789659184098241  0.2210340815901759  0.7789659184098241
  0.2210340815901759  0.7789659184098241  0.2210340815901759
  0.7789659184098241  0.2210340815901759  0.2210340815901759
  0.2210340815901759  0.7789659184098241  0.7789659184098241
  0.2210340815901759  0.2210340815901759  0.7789659184098241
  0.7789659184098241  0.7789659184098241  0.2210340815901759
  0.7500000000000000  0.7500000000000000  0.7500000000000000
  0.2500000000000000  0.2500000000000000  0.2500000000000000
  0.0000000000000000  0.0000000000000000  0.0000000000000000
 
  0.00000000E+00  0.00000000E+00  0.00000000E+00
  0.00000000E+00  0.00000000E+00  0.00000000E+00
  0.00000000E+00  0.00000000E+00  0.00000000E+00
  0.00000000E+00  0.00000000E+00  0.00000000E+00
  0.00000000E+00  0.00000000E+00  0.00000000E+00
  0.00000000E+00  0.00000000E+00  0.00000000E+00
  0.00000000E+00  0.00000000E+00  0.00000000E+00
  0.00000000E+00  0.00000000E+00  0.00000000E+00
  0.00000000E+00  0.00000000E+00  0.00000000E+00
