C1Cr3Nb3   [FCC,FCC,cF112] (STD_PRIM doi
   1.22474500000000     
     0.0000000000000000    4.7406161465693417    4.7406161465693417
     4.7406161465693417    0.0000000000000000    4.7406161465693417
     4.7406161465693417    4.7406161465693417    0.0000000000000000
   4  12  12
Direct
  0.6250000000000000  0.1250000000000000  0.1250000000000000
  0.1250000000000000  0.1250000000000000  0.1250000000000000
  0.1250000000000000  0.6250000000000000  0.1250000000000000
  0.1250000000000000  0.1250000000000000  0.6250000000000000
  0.1250000000000000  0.6250000000000000  0.6250000000000000
  0.6250000000000000  0.6250000000000000  0.6250000000000000
  0.6250000000000000  0.1250000000000000  0.6250000000000000
  0.6250000000000000  0.6250000000000000  0.1250000000000000
  0.5128297203239537  0.8290567598920131  0.8290567598920131
  0.8290567598920131  0.8290567598920131  0.8290567598920131
  0.8290567598920131  0.5128297203239537  0.8290567598920131
  0.8290567598920131  0.8290567598920131  0.5128297203239537
  0.4209432401079869  0.4209432401079869  0.4209432401079869
  0.7371702796760463  0.4209432401079869  0.4209432401079869
  0.4209432401079869  0.7371702796760463  0.4209432401079869
  0.4209432401079869  0.4209432401079869  0.7371702796760463
  0.8091100926790299  0.1908899073209700  0.8091100926790299
  0.1908899073209700  0.8091100926790299  0.1908899073209700
  0.8091100926790299  0.8091100926790299  0.1908899073209700
  0.1908899073209700  0.1908899073209700  0.8091100926790299
  0.8091100926790299  0.1908899073209700  0.1908899073209700
  0.1908899073209700  0.8091100926790299  0.8091100926790299
  0.0591100926790299  0.0591100926790299  0.4408899073209701
  0.4408899073209701  0.4408899073209701  0.0591100926790299
  0.0591100926790299  0.4408899073209701  0.0591100926790299
  0.4408899073209701  0.0591100926790299  0.4408899073209701
  0.4408899073209701  0.0591100926790299  0.0591100926790299
  0.0591100926790299  0.4408899073209701  0.4408899073209701
 
  0.00000000E+00  0.00000000E+00  0.00000000E+00
  0.00000000E+00  0.00000000E+00  0.00000000E+00
  0.00000000E+00  0.00000000E+00  0.00000000E+00
  0.00000000E+00  0.00000000E+00  0.00000000E+00
  0.00000000E+00  0.00000000E+00  0.00000000E+00
  0.00000000E+00  0.00000000E+00  0.00000000E+00
  0.00000000E+00  0.00000000E+00  0.00000000E+00
  0.00000000E+00  0.00000000E+00  0.00000000E+00
  0.00000000E+00  0.00000000E+00  0.00000000E+00
  0.00000000E+00  0.00000000E+00  0.00000000E+00
  0.00000000E+00  0.00000000E+00  0.00000000E+00
  0.00000000E+00  0.00000000E+00  0.00000000E+00
  0.00000000E+00  0.00000000E+00  0.00000000E+00
  0.00000000E+00  0.00000000E+00  0.00000000E+00
  0.00000000E+00  0.00000000E+00  0.00000000E+00
  0.00000000E+00  0.00000000E+00  0.00000000E+00
  0.00000000E+00  0.00000000E+00  0.00000000E+00
  0.00000000E+00  0.00000000E+00  0.00000000E+00
  0.00000000E+00  0.00000000E+00  0.00000000E+00
  0.00000000E+00  0.00000000E+00  0.00000000E+00
  0.00000000E+00  0.00000000E+00  0.00000000E+00
  0.00000000E+00  0.00000000E+00  0.00000000E+00
  0.00000000E+00  0.00000000E+00  0.00000000E+00
  0.00000000E+00  0.00000000E+00  0.00000000E+00
  0.00000000E+00  0.00000000E+00  0.00000000E+00
  0.00000000E+00  0.00000000E+00  0.00000000E+00
  0.00000000E+00  0.00000000E+00  0.00000000E+00
  0.00000000E+00  0.00000000E+00  0.00000000E+00
