In2Te4Zn1   [BCT,BCT2,tI14] (STD_PRIM do
   1.00000000000000     
    -3.1070247446542800    3.1070246805509738    6.2915967729828335
     3.1070247446542800   -3.1070246805509738    6.2915967729828335
     3.1070246805509742    3.1070247446542800   -6.2915967729828335
   2   4   1
Direct
  0.5000000000000000  0.5000000000000000  0.0000000000000000
  0.2500000000000000  0.7500000000000000  0.5000000000000000
  0.6551804232436993  0.1326982757832980  0.0514095803840746
  0.0812886953992162  0.6037708428596176  0.9485904196159254
  0.3962291571403824  0.3448195767563007  0.4775178525395987
  0.8673017242167020  0.9187113046007838  0.5224821474604013
  0.0000000000000000  0.0000000000000000  0.0000000000000000
 
  0.00000000E+00  0.00000000E+00  0.00000000E+00
  0.00000000E+00  0.00000000E+00  0.00000000E+00
  0.00000000E+00  0.00000000E+00  0.00000000E+00
  0.00000000E+00  0.00000000E+00  0.00000000E+00
  0.00000000E+00  0.00000000E+00  0.00000000E+00
  0.00000000E+00  0.00000000E+00  0.00000000E+00
  0.00000000E+00  0.00000000E+00  0.00000000E+00
