Hf1O3Sr1   [ORCC,ORCC,oS40] (STD_PRIM do
   1.00000000000000     
     4.0899895810778366   -4.1336525215281883    0.0000000000000000
     4.0899895810778366    4.1336525215281883    0.0000000000000000
     0.0000000000000000   -0.0000000000000000    8.2238887695584566
   4  12   4
Direct
  0.0000000000000000  0.5000000000000000  0.0000000000000000
  0.0000000000000000  0.5000000000000000  0.5000000000000000
  0.5000000000000000  0.0000000000000000  0.5000000000000000
  0.5000000000000000 -0.0000000000000000  0.0000000000000000
  0.7158021333199827  0.7158021333199827  0.0000000000000000
  0.2841978666800175  0.2841978666800175  0.5000000000000000
  0.2841978666800175  0.2841978666800175 -0.0000000000000000
  0.7158021333199827  0.7158021333199827  0.5000000000000000
  0.2181824745210234  0.7818175254789765  0.0428154104169498
  0.7818175254789765  0.2181824745210234  0.5428154104169498
  0.2181824745210234  0.7818175254789765  0.4571845895830502
  0.7818175254789765  0.2181824745210234  0.9571845895830502
  0.9600331680986183  0.4519100867956803  0.2500000000000000
  0.0399668319013818  0.5480899132043198  0.7500000000000000
  0.5480899132043198  0.0399668319013818  0.2500000000000000
  0.4519100867956803  0.9600331680986183  0.7500000000000000
  0.9904181092260158  0.0095818907739842  0.2500000000000000
  0.0095818907739842  0.9904181092260158  0.7500000000000000
  0.4937649471309574  0.5062350528690426  0.2500000000000000
  0.5062350528690426  0.4937649471309574  0.7500000000000000
 
  0.00000000E+00  0.00000000E+00  0.00000000E+00
  0.00000000E+00  0.00000000E+00  0.00000000E+00
  0.00000000E+00  0.00000000E+00  0.00000000E+00
  0.00000000E+00  0.00000000E+00  0.00000000E+00
  0.00000000E+00  0.00000000E+00  0.00000000E+00
  0.00000000E+00  0.00000000E+00  0.00000000E+00
  0.00000000E+00  0.00000000E+00  0.00000000E+00
  0.00000000E+00  0.00000000E+00  0.00000000E+00
  0.00000000E+00  0.00000000E+00  0.00000000E+00
  0.00000000E+00  0.00000000E+00  0.00000000E+00
  0.00000000E+00  0.00000000E+00  0.00000000E+00
  0.00000000E+00  0.00000000E+00  0.00000000E+00
  0.00000000E+00  0.00000000E+00  0.00000000E+00
  0.00000000E+00  0.00000000E+00  0.00000000E+00
  0.00000000E+00  0.00000000E+00  0.00000000E+00
  0.00000000E+00  0.00000000E+00  0.00000000E+00
  0.00000000E+00  0.00000000E+00  0.00000000E+00
  0.00000000E+00  0.00000000E+00  0.00000000E+00
  0.00000000E+00  0.00000000E+00  0.00000000E+00
  0.00000000E+00  0.00000000E+00  0.00000000E+00
