Mg1S4Sc2   [FCC,FCC,cF56] (STD_PRIM doi:
   1.22474500000000     
    -0.0000000000000000    4.4025155739998088    4.4025155739998079
     4.4025155739998079   -0.0000000000000000    4.4025155739998079
     4.4025155739998079    4.4025155739998088   -0.0000000000000000
   2   8   4
Direct
 -0.0000000000000000  0.0000000000000000 -0.0000000000000000
  0.2500000000000000  0.2500000000000000  0.2500000000000000
  0.3822919995945192  0.3822919995945192  0.3822919995945192
  0.8531240012164495  0.3822919995945192  0.3822919995945192
  0.3822919995945192  0.3822919995945192  0.8531240012164495
  0.3822919995945192  0.8531240012164495  0.3822919995945192
  0.3968759987835505  0.8677080004054808  0.8677080004054808
  0.8677080004054808  0.8677080004054808  0.8677080004054808
  0.8677080004054808  0.8677080004054808  0.3968759987835505
  0.8677080004054808  0.3968759987835505  0.8677080004054808
  0.6250000000000000  0.6250000000000000  0.6250000000000000
  0.1250000000000000  0.6250000000000000  0.6250000000000000
  0.6250000000000000  0.6250000000000000  0.1250000000000000
  0.6250000000000000  0.1250000000000000  0.6250000000000000
 
  0.00000000E+00  0.00000000E+00  0.00000000E+00
  0.00000000E+00  0.00000000E+00  0.00000000E+00
  0.00000000E+00  0.00000000E+00  0.00000000E+00
  0.00000000E+00  0.00000000E+00  0.00000000E+00
  0.00000000E+00  0.00000000E+00  0.00000000E+00
  0.00000000E+00  0.00000000E+00  0.00000000E+00
  0.00000000E+00  0.00000000E+00  0.00000000E+00
  0.00000000E+00  0.00000000E+00  0.00000000E+00
  0.00000000E+00  0.00000000E+00  0.00000000E+00
  0.00000000E+00  0.00000000E+00  0.00000000E+00
  0.00000000E+00  0.00000000E+00  0.00000000E+00
  0.00000000E+00  0.00000000E+00  0.00000000E+00
  0.00000000E+00  0.00000000E+00  0.00000000E+00
  0.00000000E+00  0.00000000E+00  0.00000000E+00
