S2Sn0.33Ta1   [HEX,HEX,hP20] (STD_PRIM d
   1.00000000000000     
     2.9197791090811496   -5.0572034779167625    0.0000000000000000
     2.9197791090811496    5.0572034779167625    0.0000000000000000
     0.0000000000000000    0.0000000000000000   14.8424004785657520
  12   2   6
Direct
  0.3358036218142077  0.3358036218142077  0.1059274802118264
  0.6641944633434234  0.9999995256688733  0.1059262659426294
  0.9999995256688733  0.6641944633434234  0.1059262659426294
  0.6641963781857922  0.6641963781857922  0.6059274802118264
  0.3358055366565767  0.0000004743311268  0.6059262659426293
  0.0000004743311268  0.3358055366565767  0.6059262659426293
  0.3358036218142077  0.3358036218142077  0.8940725197881736
  0.9999995256688733  0.6641944633434234  0.8940737340573707
  0.6641944633434234  0.9999995256688733  0.8940737340573707
  0.6641963781857922  0.6641963781857922  0.3940725197881735
  0.0000004743311268  0.3358055366565767  0.3940737340573706
  0.3358055366565767  0.0000004743311268  0.3940737340573706
 -0.0000000000000000 -0.0000000000000000  0.2500000000000000
  0.0000000000000000  0.0000000000000000  0.7500000000000000
 -0.0000014205158260 -0.0000014205158260  0.0000000000000000
  0.0000014205158261  0.0000014205158261  0.5000000000000000
  0.3333321269637018  0.6666660368660283  0.0000000000000000
  0.6666678730362982  0.3333339631339717  0.5000000000000000
  0.6666660368660283  0.3333321269637018  0.0000000000000000
  0.3333339631339717  0.6666678730362982  0.5000000000000000
 
  0.00000000E+00  0.00000000E+00  0.00000000E+00
  0.00000000E+00  0.00000000E+00  0.00000000E+00
  0.00000000E+00  0.00000000E+00  0.00000000E+00
  0.00000000E+00  0.00000000E+00  0.00000000E+00
  0.00000000E+00  0.00000000E+00  0.00000000E+00
  0.00000000E+00  0.00000000E+00  0.00000000E+00
  0.00000000E+00  0.00000000E+00  0.00000000E+00
  0.00000000E+00  0.00000000E+00  0.00000000E+00
  0.00000000E+00  0.00000000E+00  0.00000000E+00
  0.00000000E+00  0.00000000E+00  0.00000000E+00
  0.00000000E+00  0.00000000E+00  0.00000000E+00
  0.00000000E+00  0.00000000E+00  0.00000000E+00
  0.00000000E+00  0.00000000E+00  0.00000000E+00
  0.00000000E+00  0.00000000E+00  0.00000000E+00
  0.00000000E+00  0.00000000E+00  0.00000000E+00
  0.00000000E+00  0.00000000E+00  0.00000000E+00
  0.00000000E+00  0.00000000E+00  0.00000000E+00
  0.00000000E+00  0.00000000E+00  0.00000000E+00
  0.00000000E+00  0.00000000E+00  0.00000000E+00
  0.00000000E+00  0.00000000E+00  0.00000000E+00
