Br1La5Sb3   [HEX,HEX,hP18] (STD_PRIM doi
   1.00000000000000     
     4.8605721434032745   -8.4188168228810110    0.0000000000000000
     4.8606045024844589    8.4188354129687237    0.0000000000000000
     0.0000000000000000    0.0000000000000000    6.8455547606946103
   2  10   6
Direct
  0.0000000000000000  0.0000000000000000  0.0000000000000000
 -0.0000000000000000 -0.0000000000000000  0.5000000000000000
  0.6666372722123048  0.3333192369179271  0.0000005145240451
  0.3333627277876951  0.6666807630820729  0.5000005145240451
  0.3333627277876951  0.6666807630820729  0.9999994854759549
  0.6666372722123048  0.3333192369179271  0.4999994854759549
  0.2752452447864477  0.9999982247588344  0.2500000000000000
  0.0000000116667951  0.2752511634764269  0.2500000000000000
  0.7247571476884488  0.7247553525437443  0.2500000000000000
  0.7247547552135523  0.0000017752411656  0.7500000000000000
 -0.0000000116667951  0.7247488365235730  0.7500000000000000
  0.2752428523115513  0.2752446474562557  0.7500000000000000
  0.0000001116105600  0.6168060741146300  0.2500000000000000
  0.3831857815896532  0.3831868871824394  0.2500000000000000
  0.6168111165562022  0.0000010760410703  0.2500000000000000
  0.9999998883894400  0.3831939258853700  0.7500000000000000
  0.6168142184103468  0.6168131128175606  0.7500000000000000
  0.3831888834437977  0.9999989239589298  0.7500000000000000
 
  0.00000000E+00  0.00000000E+00  0.00000000E+00
  0.00000000E+00  0.00000000E+00  0.00000000E+00
  0.00000000E+00  0.00000000E+00  0.00000000E+00
  0.00000000E+00  0.00000000E+00  0.00000000E+00
  0.00000000E+00  0.00000000E+00  0.00000000E+00
  0.00000000E+00  0.00000000E+00  0.00000000E+00
  0.00000000E+00  0.00000000E+00  0.00000000E+00
  0.00000000E+00  0.00000000E+00  0.00000000E+00
  0.00000000E+00  0.00000000E+00  0.00000000E+00
  0.00000000E+00  0.00000000E+00  0.00000000E+00
  0.00000000E+00  0.00000000E+00  0.00000000E+00
  0.00000000E+00  0.00000000E+00  0.00000000E+00
  0.00000000E+00  0.00000000E+00  0.00000000E+00
  0.00000000E+00  0.00000000E+00  0.00000000E+00
  0.00000000E+00  0.00000000E+00  0.00000000E+00
  0.00000000E+00  0.00000000E+00  0.00000000E+00
  0.00000000E+00  0.00000000E+00  0.00000000E+00
  0.00000000E+00  0.00000000E+00  0.00000000E+00
