Ga1O6Tb3   [ORCC,ORCC,oS40] (STD_PRIM do
   1.00000000000000     
     4.4758468034043872   -5.6089634925372494    0.0000000000000000
     4.4758468034043872    5.6089634925372494    0.0000000000000000
     0.0000000000000000    0.0000000000000000    5.4689018653047343
   2  12   6
Direct
  0.8069040638048217  0.1930959361951782  0.9995164901639608
  0.1930959361951782  0.8069040638048217  0.4995164901639609
  0.5790356269371975  0.1061473197844837  0.8225638165313426
  0.4209643730628026  0.8938526802155163  0.3225638165313426
  0.1061473197844837  0.5790356269371975  0.3225638165313426
  0.8938526802155163  0.4209643730628026  0.8225638165313426
  0.6442621072265247  0.6759882230445807  0.8028554356711042
  0.3557378927734753  0.3240117769554193  0.3028554356711042
  0.6759882230445807  0.6442621072265247  0.3028554356711042
  0.3240117769554193  0.3557378927734753  0.8028554356711042
  0.9608513672604176  0.0391486327395823  0.8608475215320903
  0.0391486327395823  0.9608513672604176  0.3608475215320903
  0.7843036975082309  0.2156963024917690  0.3354498759682266
  0.2156963024917690  0.7843036975082309  0.8354498759682265
  0.7011775176874010  0.9121677371174132  0.5305597293870999
  0.2988224823125990  0.0878322628825868  0.0305597293871000
  0.9121677371174132  0.7011775176874010  0.0305597293871000
  0.0878322628825868  0.2988224823125990  0.5305597293870999
  0.6021539657693656  0.3978460342306344  0.5776881491566193
  0.3978460342306344  0.6021539657693656  0.0776881491566193
 
  0.00000000E+00  0.00000000E+00  0.00000000E+00
  0.00000000E+00  0.00000000E+00  0.00000000E+00
  0.00000000E+00  0.00000000E+00  0.00000000E+00
  0.00000000E+00  0.00000000E+00  0.00000000E+00
  0.00000000E+00  0.00000000E+00  0.00000000E+00
  0.00000000E+00  0.00000000E+00  0.00000000E+00
  0.00000000E+00  0.00000000E+00  0.00000000E+00
  0.00000000E+00  0.00000000E+00  0.00000000E+00
  0.00000000E+00  0.00000000E+00  0.00000000E+00
  0.00000000E+00  0.00000000E+00  0.00000000E+00
  0.00000000E+00  0.00000000E+00  0.00000000E+00
  0.00000000E+00  0.00000000E+00  0.00000000E+00
  0.00000000E+00  0.00000000E+00  0.00000000E+00
  0.00000000E+00  0.00000000E+00  0.00000000E+00
  0.00000000E+00  0.00000000E+00  0.00000000E+00
  0.00000000E+00  0.00000000E+00  0.00000000E+00
  0.00000000E+00  0.00000000E+00  0.00000000E+00
  0.00000000E+00  0.00000000E+00  0.00000000E+00
  0.00000000E+00  0.00000000E+00  0.00000000E+00
  0.00000000E+00  0.00000000E+00  0.00000000E+00
