Ge2Rh2Tb1   [BCT,BCT2,tI10] (STD_PRIM do
   1.00000000000000     
    -2.0647054988472071    2.0647054988472071    5.1861045595446260
     2.0647054988472071   -2.0647054988472071    5.1861045595446260
     2.0647054988472071    2.0647054988472071   -5.1861045595446260
   2   2   1
Direct
  0.6219194104205522  0.6219194104205522 -0.0000000000000000
  0.3780805895794477  0.3780805895794477  0.0000000000000000
  0.7500000000000000  0.2500000000000000  0.5000000000000000
  0.2500000000000000  0.7500000000000000  0.5000000000000000
  0.0000000000000000 -0.0000000000000000  0.0000000000000000
 
  0.00000000E+00  0.00000000E+00  0.00000000E+00
  0.00000000E+00  0.00000000E+00  0.00000000E+00
  0.00000000E+00  0.00000000E+00  0.00000000E+00
  0.00000000E+00  0.00000000E+00  0.00000000E+00
  0.00000000E+00  0.00000000E+00  0.00000000E+00
