Ni1P2   [CUB,CUB,cP12] (STD_PRIM doi:10.
   1.00000000000000     
     5.4450269312915340   -0.0000000000000000   -0.0000000000000000
     0.0000000000000000    5.4450269312915340    0.0000000000000000
     0.0000000000000000   -0.0000000000000000    5.4450269312915340
   4   8
Direct
  0.0000000000000000  0.0000000000000000  0.0000000000000000
  0.5000000000000000  0.0000000000000000  0.5000000000000000
  0.0000000000000000  0.5000000000000000  0.5000000000000000
  0.5000000000000000  0.5000000000000000  0.0000000000000000
  0.3838602052699953  0.3838602052699953  0.3838602052699953
  0.1161397947300047  0.6161397947300047  0.8838602052699953
  0.6161397947300047  0.8838602052699953  0.1161397947300047
  0.8838602052699953  0.1161397947300047  0.6161397947300047
  0.6161397947300047  0.6161397947300047  0.6161397947300047
  0.8838602052699953  0.3838602052699953  0.1161397947300047
  0.3838602052699953  0.1161397947300047  0.8838602052699953
  0.1161397947300047  0.8838602052699953  0.3838602052699953
 
  0.00000000E+00  0.00000000E+00  0.00000000E+00
  0.00000000E+00  0.00000000E+00  0.00000000E+00
  0.00000000E+00  0.00000000E+00  0.00000000E+00
  0.00000000E+00  0.00000000E+00  0.00000000E+00
  0.00000000E+00  0.00000000E+00  0.00000000E+00
  0.00000000E+00  0.00000000E+00  0.00000000E+00
  0.00000000E+00  0.00000000E+00  0.00000000E+00
  0.00000000E+00  0.00000000E+00  0.00000000E+00
  0.00000000E+00  0.00000000E+00  0.00000000E+00
  0.00000000E+00  0.00000000E+00  0.00000000E+00
  0.00000000E+00  0.00000000E+00  0.00000000E+00
  0.00000000E+00  0.00000000E+00  0.00000000E+00
