Hg1P1Pt5   [TET,TET,tP7] (STD_PRIM doi:1
   1.00000000000000     
     3.9478179761699703    0.0000000000000000    0.0000000000000000
     0.0000000000000000    3.9478179761699703    0.0000000000000000
     0.0000000000000000    0.0000000000000000    7.2258436250455453
   1   1   5
Direct
  0.5000000000000000  0.5000000000000000  0.0000000000000000
  0.0000000000000000  0.0000000000000000  0.5000000000000000
  0.0000000000000000  0.0000000000000000  0.0000000000000000
 -0.0000000000000000  0.5000000000000000  0.3032384034841143
  0.5000000000000000  0.0000000000000000  0.3032384034841143
  0.0000000000000000  0.5000000000000000  0.6967615965158858
  0.5000000000000000 -0.0000000000000000  0.6967615965158858
 
  0.00000000E+00  0.00000000E+00  0.00000000E+00
  0.00000000E+00  0.00000000E+00  0.00000000E+00
  0.00000000E+00  0.00000000E+00  0.00000000E+00
  0.00000000E+00  0.00000000E+00  0.00000000E+00
  0.00000000E+00  0.00000000E+00  0.00000000E+00
  0.00000000E+00  0.00000000E+00  0.00000000E+00
  0.00000000E+00  0.00000000E+00  0.00000000E+00
