Al0.4C0.2Ta0.6   [CUB,CUB,cP24] (STD_PRI
   1.00000000000000     
     7.1337809730321942   -0.0000000000000000    0.0000000000000000
    -0.0000000000000000    7.1337809730321942   -0.0000000000000000
     0.0000000000000000   -0.0000000000000000    7.1337809730321942
   8   4  12
Direct
  0.0702283866806014  0.0702283866806014  0.0702283866806014
  0.4297716133193986  0.9297716133193986  0.5702283866806014
  0.9297716133193986  0.5702283866806014  0.4297716133193986
  0.5702283866806014  0.4297716133193986  0.9297716133193986
  0.8202283866806014  0.3202283866806014  0.1797716133193986
  0.6797716133193986  0.6797716133193986  0.6797716133193986
  0.3202283866806014  0.1797716133193986  0.8202283866806014
  0.1797716133193986  0.8202283866806014  0.3202283866806014
  0.3750000000000000  0.3750000000000000  0.3750000000000000
  0.1250000000000000  0.6250000000000000  0.8750000000000000
  0.6250000000000000  0.8750000000000000  0.1250000000000000
  0.8750000000000000  0.1250000000000000  0.6250000000000000
  0.1250000000000000  0.2047584623564555  0.4547584623564555
  0.3750000000000000  0.7952415376435444  0.9547584623564556
  0.8750000000000000  0.7047584623564556  0.0452415376435445
  0.6250000000000000  0.2952415376435445  0.5452415376435444
  0.4547584623564555  0.1250000000000000  0.2047584623564555
  0.9547584623564556  0.3750000000000000  0.7952415376435444
  0.0452415376435445  0.8750000000000000  0.7047584623564556
  0.5452415376435444  0.6250000000000000  0.2952415376435445
  0.2047584623564555  0.4547584623564555  0.1250000000000000
  0.7952415376435444  0.9547584623564556  0.3750000000000000
  0.7047584623564556  0.0452415376435445  0.8750000000000000
  0.2952415376435445  0.5452415376435444  0.6250000000000000
 
  0.00000000E+00  0.00000000E+00  0.00000000E+00
  0.00000000E+00  0.00000000E+00  0.00000000E+00
  0.00000000E+00  0.00000000E+00  0.00000000E+00
  0.00000000E+00  0.00000000E+00  0.00000000E+00
  0.00000000E+00  0.00000000E+00  0.00000000E+00
  0.00000000E+00  0.00000000E+00  0.00000000E+00
  0.00000000E+00  0.00000000E+00  0.00000000E+00
  0.00000000E+00  0.00000000E+00  0.00000000E+00
  0.00000000E+00  0.00000000E+00  0.00000000E+00
  0.00000000E+00  0.00000000E+00  0.00000000E+00
  0.00000000E+00  0.00000000E+00  0.00000000E+00
  0.00000000E+00  0.00000000E+00  0.00000000E+00
  0.00000000E+00  0.00000000E+00  0.00000000E+00
  0.00000000E+00  0.00000000E+00  0.00000000E+00
  0.00000000E+00  0.00000000E+00  0.00000000E+00
  0.00000000E+00  0.00000000E+00  0.00000000E+00
  0.00000000E+00  0.00000000E+00  0.00000000E+00
  0.00000000E+00  0.00000000E+00  0.00000000E+00
  0.00000000E+00  0.00000000E+00  0.00000000E+00
  0.00000000E+00  0.00000000E+00  0.00000000E+00
  0.00000000E+00  0.00000000E+00  0.00000000E+00
  0.00000000E+00  0.00000000E+00  0.00000000E+00
  0.00000000E+00  0.00000000E+00  0.00000000E+00
  0.00000000E+00  0.00000000E+00  0.00000000E+00
