Cl1F1Yb1   [TET,TET,tP6] (STD_PRIM doi:1
   1.00000000000000     
     3.9371149646893371   -0.0000000000000000   -0.0000000000000000
     0.0000000000000000    3.9371149646893371    0.0000000000000000
     0.0000000000000000    0.0000000000000000    6.8929837124114082
   2   2   2
Direct
  0.2500000000000000  0.2500000000000000  0.6434598025285605
  0.7500000000000000  0.7500000000000000  0.3565401974714394
  0.7500000000000000  0.2500000000000000 -0.0000000000000000
  0.2500000000000000  0.7500000000000000 -0.0000000000000000
  0.2500000000000000  0.2500000000000000  0.1992024265527242
  0.7500000000000000  0.7500000000000000  0.8007975734472760
 
  0.00000000E+00  0.00000000E+00  0.00000000E+00
  0.00000000E+00  0.00000000E+00  0.00000000E+00
  0.00000000E+00  0.00000000E+00  0.00000000E+00
  0.00000000E+00  0.00000000E+00  0.00000000E+00
  0.00000000E+00  0.00000000E+00  0.00000000E+00
  0.00000000E+00  0.00000000E+00  0.00000000E+00
