Cu_pvO/A2B_cP6_224_b_a.AB params=-1 SG=2
   1.01639600000000     
     4.2194154146018263   -0.0000000000000000   -0.0000000000000000
     0.0000000000000000    4.2194154146018263    0.0000000000000000
     0.0000000000000000   -0.0000000000000000    4.2194154146018263
   Cu   O 
     4     2
Direct
 -0.0000000000000000  0.0000000000000000  0.0000000000000000
  0.5000000000000000  0.5000000000000000 -0.0000000000000000
  0.5000000000000000 -0.0000000000000000  0.5000000000000000
  0.0000000000000000  0.5000000000000000  0.5000000000000000
  0.7500000000000000  0.7500000000000000  0.2500000000000000
  0.2500000000000000  0.2500000000000000  0.7500000000000000
 
  0.00000000E+00  0.00000000E+00  0.00000000E+00
  0.00000000E+00  0.00000000E+00  0.00000000E+00
  0.00000000E+00  0.00000000E+00  0.00000000E+00
  0.00000000E+00  0.00000000E+00  0.00000000E+00
  0.00000000E+00  0.00000000E+00  0.00000000E+00
  0.00000000E+00  0.00000000E+00  0.00000000E+00
