Ag1P1Pd5   [TET,TET,tP7] (STD_PRIM doi:1
   1.00000000000000     
     3.9503979491702865    0.0000000000000000   -0.0000000000000000
     0.0000000000000000    3.9503979491702865   -0.0000000000000000
     0.0000000000000000    0.0000000000000000    6.9604199412030558
   1   1   5
Direct
  0.5000000000000000  0.5000000000000000  0.0000000000000000
  0.0000000000000000  0.0000000000000000  0.5000000000000000
  0.0000000000000000  0.0000000000000000  0.0000000000000000
  0.0000000000000000  0.5000000000000000  0.3002285344979320
  0.5000000000000000  0.0000000000000000  0.3002285344979320
 -0.0000000000000000  0.5000000000000000  0.6997714655020680
  0.5000000000000000  0.0000000000000000  0.6997714655020680
 
  0.00000000E+00  0.00000000E+00  0.00000000E+00
  0.00000000E+00  0.00000000E+00  0.00000000E+00
  0.00000000E+00  0.00000000E+00  0.00000000E+00
  0.00000000E+00  0.00000000E+00  0.00000000E+00
  0.00000000E+00  0.00000000E+00  0.00000000E+00
  0.00000000E+00  0.00000000E+00  0.00000000E+00
  0.00000000E+00  0.00000000E+00  0.00000000E+00
