Au1Ge1Tb1 #186 - (Au1Ge1Tb1_ICSD_656873)
   1.00000000000000     
     2.2406295044613671   -3.8806974610578990    0.0000000000000000
     2.2406295044613671    3.8806974610578990    0.0000000000000000
     0.0000000000000000    0.0000000000000000    7.3682282609779017
   2   2   2
Direct
  0.3333353909587564  0.6666646090412436  0.0341240649106170
  0.6666646090412436  0.3333353909587564  0.5341240649106170
  0.3333328663512629  0.6666671336487370  0.4571280802405487
  0.6666671336487370  0.3333328663512629  0.9571280802405487
  0.0000062337682793  0.9999937662317206  0.2487478548488434
  0.9999937662317206  0.0000062337682793  0.7487478548488434
 
  0.00000000E+00  0.00000000E+00  0.00000000E+00
  0.00000000E+00  0.00000000E+00  0.00000000E+00
  0.00000000E+00  0.00000000E+00  0.00000000E+00
  0.00000000E+00  0.00000000E+00  0.00000000E+00
  0.00000000E+00  0.00000000E+00  0.00000000E+00
  0.00000000E+00  0.00000000E+00  0.00000000E+00
