La1Rh3Si2   [HEX,HEX,hP6] (STD_PRIM doi:
   1.00000000000000     
     2.8269396769234776   -4.8964031503638106    0.0000000000000000
     2.8271176994707834    4.8965059317294193    0.0000000000000000
     0.0000000000000000    0.0000000000000000    3.6368782406643230
   1   3   2
Direct
  0.0000000000000000  0.0000000000000000  0.0000000000000000
  0.0000000000000000  0.5000000000000000  0.5000000000000000
  0.5000000000000000  0.5000000000000000  0.5000000000000000
  0.5000000000000000  0.0000000000000000  0.5000000000000000
  0.6666793856326887  0.3333587712653774 -0.0000000000000000
  0.3333206143673113  0.6666412287346226  0.0000000000000000
 
  0.00000000E+00  0.00000000E+00  0.00000000E+00
  0.00000000E+00  0.00000000E+00  0.00000000E+00
  0.00000000E+00  0.00000000E+00  0.00000000E+00
  0.00000000E+00  0.00000000E+00  0.00000000E+00
  0.00000000E+00  0.00000000E+00  0.00000000E+00
  0.00000000E+00  0.00000000E+00  0.00000000E+00
