Mg2O4Si1   [FCC,FCC,cF56] (STD_PRIM doi:
   1.22474500000000     
     0.0000000000000000    3.3274584072182285    3.3274584072182285
     3.3274584072182285    0.0000000000000000    3.3274584072182285
     3.3274584072182285    3.3274584072182285    0.0000000000000000
   4   8   2
Direct
  0.5000000000000000  0.5000000000000000  0.5000000000000000
  0.0000000000000000  0.5000000000000000  0.5000000000000000
  0.0000000000000000  0.0000000000000000  0.5000000000000000
  0.0000000000000000  0.5000000000000000  0.0000000000000000
  0.2677684321280841  0.2440771892906410  0.2440771892906410
  0.7440771892906409  0.2440771892906410  0.2440771892906410
  0.7440771892906409  0.7677684321280842  0.2440771892906410
  0.7440771892906409  0.2440771892906410  0.7677684321280842
  0.2559228107093590  0.7559228107093591  0.7559228107093591
  0.7322315678719158  0.7559228107093591  0.7559228107093591
  0.2559228107093590  0.2322315678719158  0.7559228107093591
  0.2559228107093590  0.7559228107093591  0.2322315678719158
  0.6250000000000000  0.1250000000000000  0.1250000000000000
  0.3750000000000000  0.8750000000000000  0.8750000000000000
 
  0.00000000E+00  0.00000000E+00  0.00000000E+00
  0.00000000E+00  0.00000000E+00  0.00000000E+00
  0.00000000E+00  0.00000000E+00  0.00000000E+00
  0.00000000E+00  0.00000000E+00  0.00000000E+00
  0.00000000E+00  0.00000000E+00  0.00000000E+00
  0.00000000E+00  0.00000000E+00  0.00000000E+00
  0.00000000E+00  0.00000000E+00  0.00000000E+00
  0.00000000E+00  0.00000000E+00  0.00000000E+00
  0.00000000E+00  0.00000000E+00  0.00000000E+00
  0.00000000E+00  0.00000000E+00  0.00000000E+00
  0.00000000E+00  0.00000000E+00  0.00000000E+00
  0.00000000E+00  0.00000000E+00  0.00000000E+00
  0.00000000E+00  0.00000000E+00  0.00000000E+00
  0.00000000E+00  0.00000000E+00  0.00000000E+00
