Cl2Zn1   [BCT,BCT2,tI12] (STD_PRIM doi:1
   1.00000000000000     
    -2.7900315457597382    2.7900315457597382    5.0665233096709743
     2.7900315457597382   -2.7900315457597382    5.0665233096709743
     2.7900315457597382    2.7900315457597382   -5.0665233096709743
   4   2
Direct
  0.9021745564203116  0.3750000000000000  0.0271745564203116
  0.3478254435796884  0.8750000000000000  0.9728254435796884
  0.6250000000000000  0.6521745564203116  0.5271745564203116
  0.1250000000000000  0.0978254435796884  0.4728254435796884
  0.0000000000000000  0.0000000000000000  0.0000000000000000
  0.2500000000000000  0.7500000000000000  0.5000000000000000
 
  0.00000000E+00  0.00000000E+00  0.00000000E+00
  0.00000000E+00  0.00000000E+00  0.00000000E+00
  0.00000000E+00  0.00000000E+00  0.00000000E+00
  0.00000000E+00  0.00000000E+00  0.00000000E+00
  0.00000000E+00  0.00000000E+00  0.00000000E+00
  0.00000000E+00  0.00000000E+00  0.00000000E+00
