Ho1In1Zn1 #194 - (Ho1In1Zn1_ICSD_639346)
    1.000000000000000     
     2.3417235616890149   -4.0561153728102042    0.0000000000000000
     2.3417235616890149    4.0561153728102042    0.0000000000000000
     0.0000000000000000    0.0000000000000000    7.0988967127578588
   2   2   2
Direct
  0.0000000000000000  0.0000000000000000  0.0000000000000000
  0.0000000000000000  0.0000000000000000  0.5000000000000000
  0.3333499109139386  0.6666500890860613  0.2500000000000000
  0.6666500890860613  0.3333499109139386  0.7500000000000000
  0.3333392927037824  0.6666607072962176  0.7500000000000000
  0.6666607072962176  0.3333392927037824  0.2500000000000000
 
  0.00000000E+00  0.00000000E+00  0.00000000E+00
  0.00000000E+00  0.00000000E+00  0.00000000E+00
  0.00000000E+00  0.00000000E+00  0.00000000E+00
  0.00000000E+00  0.00000000E+00  0.00000000E+00
  0.00000000E+00  0.00000000E+00  0.00000000E+00
  0.00000000E+00  0.00000000E+00  0.00000000E+00
