Pt3Y7 #186 - (Pt3Y7_ICSD_649860) - Pt3Y7
   1.00000000000000     
     4.9390378129193220   -8.5546267647325553    0.0000000000000000
     4.9390378129193220    8.5546267647325553    0.0000000000000000
     0.0000000000000000    0.0000000000000000    6.3152002972491710
   6  14
Direct
  0.8102082312146913  0.1897917687853086  0.3177273695619046
  0.8102126600598885  0.6204164908032236  0.3177299916730661
  0.3795835091967764  0.1897873399401116  0.3177299916730661
  0.1897917687853086  0.8102082312146913  0.8177273695619046
  0.1897873399401116  0.3795835091967764  0.8177299916730661
  0.6204164908032236  0.8102126600598885  0.8177299916730661
  0.3333346379201861  0.6666653620798140  0.0544881184032414
  0.6666653620798140  0.3333346379201861  0.5544881184032414
  0.1262129146646964  0.8737870853353037  0.2431126082924045
  0.1262147384729093  0.2524250104872506  0.2431182462631750
  0.7475749895127493  0.8737852615270906  0.2431182462631750
  0.8737870853353037  0.1262129146646964  0.7431126082924044
  0.8737852615270906  0.7475749895127493  0.7431182462631750
  0.2524250104872506  0.1262147384729093  0.7431182462631750
  0.5399744742508131  0.4600255257491869  0.0566671832314148
  0.5399725299045994  0.0799393467462001  0.0566541223192852
  0.9200606532537999  0.4600274700954006  0.0566541223192852
  0.4600255257491869  0.5399744742508131  0.5566671832314147
  0.4600274700954006  0.9200606532537999  0.5566541223192851
  0.0799393467462001  0.5399725299045994  0.5566541223192851
 
  0.00000000E+00  0.00000000E+00  0.00000000E+00
  0.00000000E+00  0.00000000E+00  0.00000000E+00
  0.00000000E+00  0.00000000E+00  0.00000000E+00
  0.00000000E+00  0.00000000E+00  0.00000000E+00
  0.00000000E+00  0.00000000E+00  0.00000000E+00
  0.00000000E+00  0.00000000E+00  0.00000000E+00
  0.00000000E+00  0.00000000E+00  0.00000000E+00
  0.00000000E+00  0.00000000E+00  0.00000000E+00
  0.00000000E+00  0.00000000E+00  0.00000000E+00
  0.00000000E+00  0.00000000E+00  0.00000000E+00
  0.00000000E+00  0.00000000E+00  0.00000000E+00
  0.00000000E+00  0.00000000E+00  0.00000000E+00
  0.00000000E+00  0.00000000E+00  0.00000000E+00
  0.00000000E+00  0.00000000E+00  0.00000000E+00
  0.00000000E+00  0.00000000E+00  0.00000000E+00
  0.00000000E+00  0.00000000E+00  0.00000000E+00
  0.00000000E+00  0.00000000E+00  0.00000000E+00
  0.00000000E+00  0.00000000E+00  0.00000000E+00
  0.00000000E+00  0.00000000E+00  0.00000000E+00
  0.00000000E+00  0.00000000E+00  0.00000000E+00
