Ag1As1Ca1   [HEX,HEX,hP9] (STD_PRIM doi:
   1.00000000000000     
     3.6473718052598474   -6.3174332808042788    0.0000000000000000
     3.6473455651406645    6.3174181310644038    0.0000000000000000
     0.0000000000000000    0.0000000000000000    4.3006820211927037
   3   3   3
Direct
  0.0000105624158400  0.7511061322304357  0.0000000000000000
  0.2489044301854044  0.2488938677695644  0.0000000000000000
  0.7510857844843800  0.0000000000000000  0.0000000000000000
  0.6666697382245798  0.3333419665526914  0.0000000000000000
  0.3333277716718884  0.6666580334473087  0.0000000000000000
 -0.0000001825860110  0.0000000000000000  0.5000000000000000
  0.9999974335869286  0.4138550607649804  0.5000000000000000
  0.5861423728219483  0.5861449392350198  0.5000000000000000
  0.4138620891950416 -0.0000000000000000  0.5000000000000000
 
  0.00000000E+00  0.00000000E+00  0.00000000E+00
  0.00000000E+00  0.00000000E+00  0.00000000E+00
  0.00000000E+00  0.00000000E+00  0.00000000E+00
  0.00000000E+00  0.00000000E+00  0.00000000E+00
  0.00000000E+00  0.00000000E+00  0.00000000E+00
  0.00000000E+00  0.00000000E+00  0.00000000E+00
  0.00000000E+00  0.00000000E+00  0.00000000E+00
  0.00000000E+00  0.00000000E+00  0.00000000E+00
  0.00000000E+00  0.00000000E+00  0.00000000E+00
