Mg1O3V1   [ORCC,ORCC,oS20] (STD_PRIM doi
   1.00000000000000     
     2.6631387707038576   -5.1345397823669927    0.0000000000000000
     2.6631387707038576    5.1345397823669927    0.0000000000000000
     0.0000000000000000    0.0000000000000000    5.3028410077522397
   2   6   2
Direct
  0.4250733917927477  0.5749266082072524  0.9882792438111657
  0.5749266082072524  0.4250733917927477  0.4882792438111657
  0.2387825921259800  0.2387390193055379  0.7380769304838040
  0.7612174078740199  0.7612609806944620  0.2380769304838039
  0.2387390193055379  0.2387825921259800  0.2380769304838039
  0.7612609806944620  0.7612174078740199  0.7380769304838040
  0.2345943120186270  0.7654056879813730  0.9839277747802078
  0.7654056879813730  0.2345943120186270  0.4839277747802077
  0.0704001632612347  0.9295998367387653  0.9876391204410115
  0.9295998367387653  0.0704001632612347  0.4876391204410115
 
  0.00000000E+00  0.00000000E+00  0.00000000E+00
  0.00000000E+00  0.00000000E+00  0.00000000E+00
  0.00000000E+00  0.00000000E+00  0.00000000E+00
  0.00000000E+00  0.00000000E+00  0.00000000E+00
  0.00000000E+00  0.00000000E+00  0.00000000E+00
  0.00000000E+00  0.00000000E+00  0.00000000E+00
  0.00000000E+00  0.00000000E+00  0.00000000E+00
  0.00000000E+00  0.00000000E+00  0.00000000E+00
  0.00000000E+00  0.00000000E+00  0.00000000E+00
  0.00000000E+00  0.00000000E+00  0.00000000E+00
