C2Er1   [BCT,BCT2,tI6] (STD_PRIM doi:10.
   1.00000000000000     
    -1.8123472303141199    1.8123472303141199    3.0669459269367132
     1.8123472303141199   -1.8123472303141199    3.0669459269367132
     1.8123472303141199    1.8123472303141199   -3.0669459269367132
   2   1
Direct
  0.6064596229537129  0.6064596229537129 -0.0000000000000000
  0.3935403770462871  0.3935403770462871 -0.0000000000000000
  0.0000000000000000  0.0000000000000000  0.0000000000000000
 
  0.00000000E+00  0.00000000E+00  0.00000000E+00
  0.00000000E+00  0.00000000E+00  0.00000000E+00
  0.00000000E+00  0.00000000E+00  0.00000000E+00
