Cu1F3Rb1   [BCT,BCT2,tI20] (STD_PRIM doi
   1.00000000000000     
    -3.0564425147671734    3.0564425147671734    4.0155093967744131
     3.0564425147671734   -3.0564425147671734    4.0155093967744131
     3.0564425147671734    3.0564425147671734   -4.0155093967744131
   2   6   2
Direct
  0.0000000000000000  0.5000000000000000  0.5000000000000000
  0.5000000000000000  0.0000000000000000  0.5000000000000000
  0.2500000000000000  0.7500000000000000  0.5000000000000000
  0.7500000000000000  0.2500000000000000  0.5000000000000000
  0.7799480373561526  0.7200519626438474  0.5000000000000000
  0.2200519626438474  0.2799480373561526  0.5000000000000000
  0.7200519626438474  0.2200519626438474  0.9401039252877089
  0.2799480373561526  0.7799480373561526  0.0598960747122910
  0.2500000000000000  0.2500000000000000  0.0000000000000000
  0.7500000000000000  0.7500000000000000 -0.0000000000000000
 
  0.00000000E+00  0.00000000E+00  0.00000000E+00
  0.00000000E+00  0.00000000E+00  0.00000000E+00
  0.00000000E+00  0.00000000E+00  0.00000000E+00
  0.00000000E+00  0.00000000E+00  0.00000000E+00
  0.00000000E+00  0.00000000E+00  0.00000000E+00
  0.00000000E+00  0.00000000E+00  0.00000000E+00
  0.00000000E+00  0.00000000E+00  0.00000000E+00
  0.00000000E+00  0.00000000E+00  0.00000000E+00
  0.00000000E+00  0.00000000E+00  0.00000000E+00
  0.00000000E+00  0.00000000E+00  0.00000000E+00
