Al18Mg3V2   [FCC,FCC,cF184] (STD_PRIM do
   1.22474500000000     
     0.0000000000000000    5.9628345601501680    5.9628345601501680
     5.9628345601501680    0.0000000000000000    5.9628345601501680
     5.9628345601501680    5.9628345601501680    0.0000000000000000
  36   6   4
Direct
  0.4849741109946493  0.7650258890053507  0.2650258890053507
  0.7650258890053507  0.4849741109946493  0.9849741109946493
  0.7650258890053507  0.4849741109946493  0.2650258890053507
  0.4849741109946493  0.7650258890053507  0.9849741109946493
  0.4849741109946493  0.4849741109946493  0.2650258890053507
  0.7650258890053507  0.7650258890053507  0.9849741109946493
  0.5150258890053507  0.2349741109946493  0.0150258890053507
  0.2349741109946493  0.5150258890053507  0.7349741109946493
  0.2349741109946493  0.5150258890053507  0.0150258890053507
  0.5150258890053507  0.2349741109946493  0.7349741109946493
  0.5150258890053507  0.5150258890053507  0.7349741109946493
  0.2349741109946493  0.2349741109946493  0.0150258890053507
  0.3245519705689333  0.3245519705689333  0.5577031998506570
  0.3245519705689333  0.3245519705689333  0.2931928590114765
  0.0577031998506570  0.7931928590114765  0.8245519705689333
  0.7931928590114765  0.0577031998506570  0.8245519705689333
  0.3245519705689333  0.7931928590114765  0.5577031998506570
  0.3245519705689333  0.0577031998506570  0.2931928590114765
  0.7931928590114765  0.3245519705689333  0.8245519705689333
  0.0577031998506570  0.3245519705689333  0.8245519705689333
  0.7931928590114765  0.3245519705689333  0.5577031998506570
  0.0577031998506570  0.3245519705689333  0.2931928590114765
  0.3245519705689333  0.0577031998506570  0.8245519705689333
  0.3245519705689333  0.7931928590114765  0.8245519705689333
  0.6754480294310667  0.6754480294310667  0.7068071409885235
  0.6754480294310667  0.6754480294310667  0.4422968001493430
  0.9422968001493430  0.2068071409885235  0.1754480294310667
  0.2068071409885235  0.9422968001493430  0.1754480294310667
  0.6754480294310667  0.2068071409885235  0.1754480294310667
  0.6754480294310667  0.9422968001493430  0.1754480294310667
  0.2068071409885235  0.6754480294310667  0.4422968001493430
  0.9422968001493430  0.6754480294310667  0.7068071409885235
  0.2068071409885235  0.6754480294310667  0.1754480294310667
  0.9422968001493430  0.6754480294310667  0.1754480294310667
  0.6754480294310667  0.9422968001493430  0.7068071409885235
  0.6754480294310667  0.2068071409885235  0.4422968001493430
  0.0000000000000000  0.0000000000000000  0.0000000000000000
  0.0000000000000000  0.0000000000000000  0.5000000000000000
  0.5000000000000000  0.0000000000000000  0.5000000000000000
  0.0000000000000000  0.5000000000000000  0.5000000000000000
  0.1250000000000000  0.1250000000000000  0.6250000000000000
  0.8750000000000000  0.8750000000000000  0.3750000000000000
  0.5000000000000000  0.5000000000000000  0.5000000000000000
  0.5000000000000000  0.5000000000000000  0.0000000000000000
  0.0000000000000000  0.5000000000000000  0.0000000000000000
  0.5000000000000000  0.0000000000000000  0.0000000000000000
 
  0.00000000E+00  0.00000000E+00  0.00000000E+00
  0.00000000E+00  0.00000000E+00  0.00000000E+00
  0.00000000E+00  0.00000000E+00  0.00000000E+00
  0.00000000E+00  0.00000000E+00  0.00000000E+00
  0.00000000E+00  0.00000000E+00  0.00000000E+00
  0.00000000E+00  0.00000000E+00  0.00000000E+00
  0.00000000E+00  0.00000000E+00  0.00000000E+00
  0.00000000E+00  0.00000000E+00  0.00000000E+00
  0.00000000E+00  0.00000000E+00  0.00000000E+00
  0.00000000E+00  0.00000000E+00  0.00000000E+00
  0.00000000E+00  0.00000000E+00  0.00000000E+00
  0.00000000E+00  0.00000000E+00  0.00000000E+00
  0.00000000E+00  0.00000000E+00  0.00000000E+00
  0.00000000E+00  0.00000000E+00  0.00000000E+00
  0.00000000E+00  0.00000000E+00  0.00000000E+00
  0.00000000E+00  0.00000000E+00  0.00000000E+00
  0.00000000E+00  0.00000000E+00  0.00000000E+00
  0.00000000E+00  0.00000000E+00  0.00000000E+00
  0.00000000E+00  0.00000000E+00  0.00000000E+00
  0.00000000E+00  0.00000000E+00  0.00000000E+00
  0.00000000E+00  0.00000000E+00  0.00000000E+00
  0.00000000E+00  0.00000000E+00  0.00000000E+00
  0.00000000E+00  0.00000000E+00  0.00000000E+00
  0.00000000E+00  0.00000000E+00  0.00000000E+00
  0.00000000E+00  0.00000000E+00  0.00000000E+00
  0.00000000E+00  0.00000000E+00  0.00000000E+00
  0.00000000E+00  0.00000000E+00  0.00000000E+00
  0.00000000E+00  0.00000000E+00  0.00000000E+00
  0.00000000E+00  0.00000000E+00  0.00000000E+00
  0.00000000E+00  0.00000000E+00  0.00000000E+00
  0.00000000E+00  0.00000000E+00  0.00000000E+00
  0.00000000E+00  0.00000000E+00  0.00000000E+00
  0.00000000E+00  0.00000000E+00  0.00000000E+00
  0.00000000E+00  0.00000000E+00  0.00000000E+00
  0.00000000E+00  0.00000000E+00  0.00000000E+00
  0.00000000E+00  0.00000000E+00  0.00000000E+00
  0.00000000E+00  0.00000000E+00  0.00000000E+00
  0.00000000E+00  0.00000000E+00  0.00000000E+00
  0.00000000E+00  0.00000000E+00  0.00000000E+00
  0.00000000E+00  0.00000000E+00  0.00000000E+00
  0.00000000E+00  0.00000000E+00  0.00000000E+00
  0.00000000E+00  0.00000000E+00  0.00000000E+00
  0.00000000E+00  0.00000000E+00  0.00000000E+00
  0.00000000E+00  0.00000000E+00  0.00000000E+00
  0.00000000E+00  0.00000000E+00  0.00000000E+00
  0.00000000E+00  0.00000000E+00  0.00000000E+00
