Ni1O6Sb2   [TET,TET,tP18] (STD_PRIM doi:
   1.00000000000000     
     4.7163067134413206   -0.0000000000000000    0.0000000000000000
     0.0000000000000000    4.7163067134413206    0.0000000000000000
     0.0000000000000000    0.0000000000000000    9.3652212813716496
   2  12   4
Direct
  0.0000000000000000  0.0000000000000000  0.0000000000000000
  0.5000000000000000  0.5000000000000000  0.5000000000000000
  0.3093562062247896  0.3093562062247896 -0.0000000000000000
  0.6906437937752105  0.6906437937752105  0.0000000000000000
  0.1906437937752104  0.8093562062247895  0.5000000000000000
  0.8093562062247895  0.1906437937752104  0.5000000000000000
  0.3031764641124071  0.3031764641124071  0.3293178318115479
  0.6968235358875929  0.6968235358875929  0.3293178318115479
  0.1968235358875929  0.8031764641124071  0.8293178318115478
  0.8031764641124071  0.1968235358875929  0.8293178318115478
  0.1968235358875929  0.8031764641124071  0.1706821681884521
  0.8031764641124071  0.1968235358875929  0.1706821681884521
  0.3031764641124071  0.3031764641124071  0.6706821681884522
  0.6968235358875929  0.6968235358875929  0.6706821681884522
  0.0000000000000000 -0.0000000000000000  0.3324164558581281
  0.5000000000000000  0.5000000000000000  0.8324164558581281
  0.5000000000000000  0.5000000000000000  0.1675835441418719
  0.0000000000000000  0.0000000000000000  0.6675835441418719
 
  0.00000000E+00  0.00000000E+00  0.00000000E+00
  0.00000000E+00  0.00000000E+00  0.00000000E+00
  0.00000000E+00  0.00000000E+00  0.00000000E+00
  0.00000000E+00  0.00000000E+00  0.00000000E+00
  0.00000000E+00  0.00000000E+00  0.00000000E+00
  0.00000000E+00  0.00000000E+00  0.00000000E+00
  0.00000000E+00  0.00000000E+00  0.00000000E+00
  0.00000000E+00  0.00000000E+00  0.00000000E+00
  0.00000000E+00  0.00000000E+00  0.00000000E+00
  0.00000000E+00  0.00000000E+00  0.00000000E+00
  0.00000000E+00  0.00000000E+00  0.00000000E+00
  0.00000000E+00  0.00000000E+00  0.00000000E+00
  0.00000000E+00  0.00000000E+00  0.00000000E+00
  0.00000000E+00  0.00000000E+00  0.00000000E+00
  0.00000000E+00  0.00000000E+00  0.00000000E+00
  0.00000000E+00  0.00000000E+00  0.00000000E+00
  0.00000000E+00  0.00000000E+00  0.00000000E+00
  0.00000000E+00  0.00000000E+00  0.00000000E+00
