In1Rh1Tb4   [FCC,FCC,cF96] (STD_PRIM doi
   1.22474500000000     
     0.0000000000000000    5.5883963748993519    5.5883963748993519
     5.5883963748993519   -0.0000000000000000    5.5883963748993519
     5.5883963748993519    5.5883963748993519   -0.0000000000000000
   4   4  16
Direct
  0.5822258748515524  0.5822258748515524  0.5822258748515524
  0.5822258748515524  0.2533223754453499  0.5822258748515524
  0.5822258748515524  0.5822258748515524  0.2533223754453499
  0.2533223754453499  0.5822258748515524  0.5822258748515524
  0.1422908464037783  0.1422908464037783  0.1422908464037783
  0.1422908464037783  0.5731274607886579  0.1422908464037783
  0.1422908464037783  0.1422908464037783  0.5731274607886579
  0.5731274607886579  0.1422908464037783  0.1422908464037783
  0.9371622718792146  0.5628377281207854  0.5628377281207854
  0.5628377281207854  0.9371622718792146  0.9371622718792146
  0.5628377281207854  0.5628377281207854  0.9371622718792146
  0.9371622718792146  0.9371622718792146  0.5628377281207854
  0.5628377281207854  0.9371622718792146  0.5628377281207854
  0.9371622718792146  0.5628377281207854  0.9371622718792146
  0.8107910749630620  0.1892089250369380  0.1892089250369380
  0.1892089250369380  0.8107910749630620  0.8107910749630620
  0.1892089250369380  0.1892089250369380  0.8107910749630620
  0.8107910749630620  0.8107910749630620  0.1892089250369380
  0.1892089250369380  0.8107910749630620  0.1892089250369380
  0.8107910749630620  0.1892089250369380  0.8107910749630620
  0.3490757846058470  0.3490757846058470  0.3490757846058470
  0.3490757846058470  0.9527726461824588  0.3490757846058470
  0.3490757846058470  0.3490757846058470  0.9527726461824588
  0.9527726461824588  0.3490757846058470  0.3490757846058470
 
  0.00000000E+00  0.00000000E+00  0.00000000E+00
  0.00000000E+00  0.00000000E+00  0.00000000E+00
  0.00000000E+00  0.00000000E+00  0.00000000E+00
  0.00000000E+00  0.00000000E+00  0.00000000E+00
  0.00000000E+00  0.00000000E+00  0.00000000E+00
  0.00000000E+00  0.00000000E+00  0.00000000E+00
  0.00000000E+00  0.00000000E+00  0.00000000E+00
  0.00000000E+00  0.00000000E+00  0.00000000E+00
  0.00000000E+00  0.00000000E+00  0.00000000E+00
  0.00000000E+00  0.00000000E+00  0.00000000E+00
  0.00000000E+00  0.00000000E+00  0.00000000E+00
  0.00000000E+00  0.00000000E+00  0.00000000E+00
  0.00000000E+00  0.00000000E+00  0.00000000E+00
  0.00000000E+00  0.00000000E+00  0.00000000E+00
  0.00000000E+00  0.00000000E+00  0.00000000E+00
  0.00000000E+00  0.00000000E+00  0.00000000E+00
  0.00000000E+00  0.00000000E+00  0.00000000E+00
  0.00000000E+00  0.00000000E+00  0.00000000E+00
  0.00000000E+00  0.00000000E+00  0.00000000E+00
  0.00000000E+00  0.00000000E+00  0.00000000E+00
  0.00000000E+00  0.00000000E+00  0.00000000E+00
  0.00000000E+00  0.00000000E+00  0.00000000E+00
  0.00000000E+00  0.00000000E+00  0.00000000E+00
  0.00000000E+00  0.00000000E+00  0.00000000E+00
