C2U1W1   [ORC,ORC,oP16] (STD_PRIM doi:10
   1.00000000000000     
     4.0296200314969566    0.0000000000000000    0.0000000000000000
     0.0000000000000000    5.5516823561568991    0.0002032214554891
     0.0000000000000000    0.0003994163876302   10.7005423237978103
   8   4   4
Direct
  0.2500000000000000  0.5904971087496892  0.8782096320155831
  0.7500000000000000  0.9095158560182320  0.3782107258602400
  0.7500000000000000  0.4095028912503108  0.1217903679844169
  0.2500000000000000  0.0904841439817679  0.6217892741397599
  0.2500000000000000  0.7531136904165606  0.0011900151002257
  0.7500000000000000  0.7468651762847682  0.5011877926037267
  0.7500000000000000  0.2468863095834394  0.9988099848997744
  0.2500000000000000  0.2531348237152318  0.4988122073962733
  0.2500000000000000  0.0922362240159197  0.8569110880268308
  0.7500000000000000  0.4077766343883427  0.3569154207201154
  0.7500000000000000  0.9077637759840803  0.1430889119731692
  0.2500000000000000  0.5922233656116573  0.6430845792798846
  0.2500000000000000  0.4047139294611605  0.0807140567243798
  0.7500000000000000  0.0953045173945709  0.5807199432630926
  0.7500000000000000  0.5952860705388395  0.9192859432756202
  0.2500000000000000  0.9046954826054291  0.4192800567369074
 
  0.00000000E+00  0.00000000E+00  0.00000000E+00
  0.00000000E+00  0.00000000E+00  0.00000000E+00
  0.00000000E+00  0.00000000E+00  0.00000000E+00
  0.00000000E+00  0.00000000E+00  0.00000000E+00
  0.00000000E+00  0.00000000E+00  0.00000000E+00
  0.00000000E+00  0.00000000E+00  0.00000000E+00
  0.00000000E+00  0.00000000E+00  0.00000000E+00
  0.00000000E+00  0.00000000E+00  0.00000000E+00
  0.00000000E+00  0.00000000E+00  0.00000000E+00
  0.00000000E+00  0.00000000E+00  0.00000000E+00
  0.00000000E+00  0.00000000E+00  0.00000000E+00
  0.00000000E+00  0.00000000E+00  0.00000000E+00
  0.00000000E+00  0.00000000E+00  0.00000000E+00
  0.00000000E+00  0.00000000E+00  0.00000000E+00
  0.00000000E+00  0.00000000E+00  0.00000000E+00
  0.00000000E+00  0.00000000E+00  0.00000000E+00
