Cl6Cs2Zr1   [FCC,FCC,cF36] (STD_PRIM doi
   1.22474500000000     
     0.0000000000000000    4.4031877501745926    4.4031877501745926
     4.4031877501745926    0.0000000000000000    4.4031877501745926
     4.4031877501745926    4.4031877501745926    0.0000000000000000
   6   2   1
Direct
  0.2312698751841396  0.2312698751841396  0.7687301248158604
  0.7687301248158604  0.7687301248158604  0.2312698751841396
  0.7687301248158604  0.2312698751841396  0.2312698751841396
  0.2312698751841396  0.7687301248158604  0.7687301248158604
  0.2312698751841396  0.7687301248158604  0.2312698751841396
  0.7687301248158604  0.2312698751841396  0.7687301248158604
  0.2500000000000000  0.2500000000000000  0.2500000000000000
  0.7500000000000000  0.7500000000000000  0.7500000000000000
  0.0000000000000000  0.0000000000000000  0.0000000000000000
 
  0.00000000E+00  0.00000000E+00  0.00000000E+00
  0.00000000E+00  0.00000000E+00  0.00000000E+00
  0.00000000E+00  0.00000000E+00  0.00000000E+00
  0.00000000E+00  0.00000000E+00  0.00000000E+00
  0.00000000E+00  0.00000000E+00  0.00000000E+00
  0.00000000E+00  0.00000000E+00  0.00000000E+00
  0.00000000E+00  0.00000000E+00  0.00000000E+00
  0.00000000E+00  0.00000000E+00  0.00000000E+00
  0.00000000E+00  0.00000000E+00  0.00000000E+00
