O3Sr1Zr1   [BCT,BCT2,tI20] (STD_PRIM doi
   1.00000000000000     
    -2.9158514346219109    2.9158514346219109    4.2233794696928380
     2.9158514346219109   -2.9158514346219109    4.2233794696928380
     2.9158514346219109    2.9158514346219109   -4.2233794696928380
   6   2   2
Direct
  0.7500000000000000  0.7500000000000000  0.0000000000000000
  0.2500000000000000  0.2500000000000000 -0.0000000000000000
  0.3106767363049140  0.8106767363049140  0.1213534726098352
  0.6893232636950860  0.1893232636950860  0.8786465273901648
  0.1893232636950860  0.3106767363049140  0.5000000000000000
  0.8106767363049140  0.6893232636950860  0.5000000000000000
  0.7500000000000000  0.2500000000000000  0.5000000000000000
  0.2500000000000000  0.7500000000000000  0.5000000000000000
 -0.0000000000000000 -0.0000000000000000  0.0000000000000000
  0.5000000000000000  0.5000000000000000  0.0000000000000000
 
  0.00000000E+00  0.00000000E+00  0.00000000E+00
  0.00000000E+00  0.00000000E+00  0.00000000E+00
  0.00000000E+00  0.00000000E+00  0.00000000E+00
  0.00000000E+00  0.00000000E+00  0.00000000E+00
  0.00000000E+00  0.00000000E+00  0.00000000E+00
  0.00000000E+00  0.00000000E+00  0.00000000E+00
  0.00000000E+00  0.00000000E+00  0.00000000E+00
  0.00000000E+00  0.00000000E+00  0.00000000E+00
  0.00000000E+00  0.00000000E+00  0.00000000E+00
  0.00000000E+00  0.00000000E+00  0.00000000E+00
