Co1Dy1Sn1   [ORC,ORC,oP12] (STD_PRIM doi
   1.00000000000000     
     4.6017956213157021    0.0000000000000000    0.0000000000000000
     0.0000000000000000    7.3825721251695668    0.0000000000000000
     0.0000000000000000    0.0000000000000000    7.2742661018973580
   4   4   4
Direct
  0.2500000000000000  0.3605590675429896  0.5507340270075252
  0.7500000000000000  0.1394409324570104  0.0507340270075252
  0.7500000000000000  0.6394409324570105  0.4492659729924748
  0.2500000000000000  0.8605590675429895  0.9492659729924748
  0.2500000000000000  0.0254571841540798  0.2936688964622381
  0.7500000000000000  0.4745428158459202  0.7936688964622381
  0.7500000000000000  0.9745428158459202  0.7063311035377619
  0.2500000000000000  0.5254571841540798  0.2063311035377619
  0.2500000000000000  0.2112413495115925  0.8886160597466179
  0.7500000000000000  0.2887586504884075  0.3886160597466180
  0.7500000000000000  0.7887586504884075  0.1113839402533820
  0.2500000000000000  0.7112413495115925  0.6113839402533821
 
  0.00000000E+00  0.00000000E+00  0.00000000E+00
  0.00000000E+00  0.00000000E+00  0.00000000E+00
  0.00000000E+00  0.00000000E+00  0.00000000E+00
  0.00000000E+00  0.00000000E+00  0.00000000E+00
  0.00000000E+00  0.00000000E+00  0.00000000E+00
  0.00000000E+00  0.00000000E+00  0.00000000E+00
  0.00000000E+00  0.00000000E+00  0.00000000E+00
  0.00000000E+00  0.00000000E+00  0.00000000E+00
  0.00000000E+00  0.00000000E+00  0.00000000E+00
  0.00000000E+00  0.00000000E+00  0.00000000E+00
  0.00000000E+00  0.00000000E+00  0.00000000E+00
  0.00000000E+00  0.00000000E+00  0.00000000E+00
