C2Pu1W1   [ORC,ORC,oP16] (STD_PRIM doi:1
   1.00000000000000     
     3.2876529388117377    0.0000000000000000    0.0000000000000000
    -0.0000000000000000    5.7109817598951178    0.0000000000000000
     0.0000000000000000    0.0000000000000000   10.9910947384397364
   8   4   4
Direct
  0.2500000000000000  0.1627762876951175  0.2451055349520443
  0.7500000000000000  0.3372237123048825  0.7451055349520442
  0.7500000000000000  0.8372237123048824  0.7548944650479558
  0.2500000000000000  0.6627762876951176  0.2548944650479557
  0.2500000000000000  0.7368568775595782  0.9897363401938404
  0.7500000000000000  0.7631431224404218  0.4897363401938404
  0.7500000000000000  0.2631431224404217  0.0102636598061596
  0.2500000000000000  0.2368568775595782  0.5102636598061596
  0.2500000000000000  0.0847143633307971  0.8604387239413226
  0.7500000000000000  0.4152856366692029  0.3604387239413225
  0.7500000000000000  0.9152856366692029  0.1395612760586775
  0.2500000000000000  0.5847143633307971  0.6395612760586774
  0.2500000000000000  0.4138203137736685  0.1071012958282255
  0.7500000000000000  0.0861796862263245  0.6071012958282256
  0.7500000000000000  0.5861796862263245  0.8928987041717744
  0.2500000000000000  0.9138203137736755  0.3928987041717745
 
  0.00000000E+00  0.00000000E+00  0.00000000E+00
  0.00000000E+00  0.00000000E+00  0.00000000E+00
  0.00000000E+00  0.00000000E+00  0.00000000E+00
  0.00000000E+00  0.00000000E+00  0.00000000E+00
  0.00000000E+00  0.00000000E+00  0.00000000E+00
  0.00000000E+00  0.00000000E+00  0.00000000E+00
  0.00000000E+00  0.00000000E+00  0.00000000E+00
  0.00000000E+00  0.00000000E+00  0.00000000E+00
  0.00000000E+00  0.00000000E+00  0.00000000E+00
  0.00000000E+00  0.00000000E+00  0.00000000E+00
  0.00000000E+00  0.00000000E+00  0.00000000E+00
  0.00000000E+00  0.00000000E+00  0.00000000E+00
  0.00000000E+00  0.00000000E+00  0.00000000E+00
  0.00000000E+00  0.00000000E+00  0.00000000E+00
  0.00000000E+00  0.00000000E+00  0.00000000E+00
  0.00000000E+00  0.00000000E+00  0.00000000E+00
