O2Rb2   [ORCI,ORCI,oI8] (STD_PRIM doi:10
   1.00000000000000     
    -2.1441976043952966    3.0151461632578913    3.6061694098572916
     2.1441976043952966   -3.0151461632578913    3.6061694098572916
     2.1441976043952966    3.0151461632578913   -3.6061694098572916
   2   2
Direct
  0.6264658748122665  0.0000000000000000  0.6264658748122665
  0.3735341251877335  0.0000000000000000  0.3735341251877335
  0.2612638587313451  0.2612638587313451  0.0000000000000000
  0.7387361412686549  0.7387361412686549 -0.0000000000000000
 
  0.00000000E+00  0.00000000E+00  0.00000000E+00
  0.00000000E+00  0.00000000E+00  0.00000000E+00
  0.00000000E+00  0.00000000E+00  0.00000000E+00
  0.00000000E+00  0.00000000E+00  0.00000000E+00
