In3La1 #221 - (In3La1_ICSD_51952) - In3L
   1.00000000000000     
     4.7792778159797091    0.0000000000000000   -0.0000000000000000
    -0.0000000000000000    4.7792778159797091    0.0000000000000000
     0.0000000000000000   -0.0000000000000000    4.7792778159797091
   3   1
Direct
  0.0000000000000000  0.5000000000000000  0.5000000000000000
  0.5000000000000000  0.0000000000000000  0.5000000000000000
  0.5000000000000000  0.5000000000000000  0.0000000000000000
  0.0000000000000000  0.0000000000000000  0.0000000000000000
 
  0.00000000E+00  0.00000000E+00  0.00000000E+00
  0.00000000E+00  0.00000000E+00  0.00000000E+00
  0.00000000E+00  0.00000000E+00  0.00000000E+00
  0.00000000E+00  0.00000000E+00  0.00000000E+00
