Hf1P1V1   [ORC,ORC,oP12] (STD_PRIM doi:1
   1.00000000000000     
     3.4929896577669508   -0.0000000000000000    0.0000000000000000
    -0.0000000000000000    6.5922115489237392    0.0000000000000000
     0.0000000000000000    0.0000000000000000    7.8932879355657182
   4   4   4
Direct
  0.2500000000000000  0.0435497294681522  0.8321877848908896
  0.7500000000000000  0.4564502705318478  0.3321877848908896
  0.7500000000000000  0.9564502705318478  0.1678122151091104
  0.2500000000000000  0.5435497294681522  0.6678122151091104
  0.2500000000000000  0.7577298935401123  0.3612334934234731
  0.7500000000000000  0.7422701064598877  0.8612334934234731
  0.7500000000000000  0.2422701064598877  0.6387665065765269
  0.2500000000000000  0.2577298935401122  0.1387665065765270
  0.2500000000000000  0.1303667876405366  0.4425868389562422
  0.7500000000000000  0.3696332123594634  0.9425868389562423
  0.7500000000000000  0.8696332123594633  0.5574131610437577
  0.2500000000000000  0.6303667876405367  0.0574131610437578
 
  0.00000000E+00  0.00000000E+00  0.00000000E+00
  0.00000000E+00  0.00000000E+00  0.00000000E+00
  0.00000000E+00  0.00000000E+00  0.00000000E+00
  0.00000000E+00  0.00000000E+00  0.00000000E+00
  0.00000000E+00  0.00000000E+00  0.00000000E+00
  0.00000000E+00  0.00000000E+00  0.00000000E+00
  0.00000000E+00  0.00000000E+00  0.00000000E+00
  0.00000000E+00  0.00000000E+00  0.00000000E+00
  0.00000000E+00  0.00000000E+00  0.00000000E+00
  0.00000000E+00  0.00000000E+00  0.00000000E+00
  0.00000000E+00  0.00000000E+00  0.00000000E+00
  0.00000000E+00  0.00000000E+00  0.00000000E+00
