Dy1In1Zn1 #194 - (Dy1In1Zn1_ICSD_629871)
    1.000000000000000     
     2.3408224748643889   -4.0540749205350171    0.0000000000000000
     2.3408224748643889    4.0540749205350171    0.0000000000000000
     0.0000000000000000    0.0000000000000000    7.1800267171983112
   2   2   2
Direct
  0.0000000000000000  0.0000000000000000  0.0000000000000000
  0.0000000000000000  0.0000000000000000  0.5000000000000000
  0.3333420802644091  0.6666579197355910  0.2500000000000000
  0.6666579197355910  0.3333420802644091  0.7500000000000000
  0.3333317503638068  0.6666682496361932  0.7500000000000000
  0.6666682496361932  0.3333317503638068  0.2500000000000000
 
  0.00000000E+00  0.00000000E+00  0.00000000E+00
  0.00000000E+00  0.00000000E+00  0.00000000E+00
  0.00000000E+00  0.00000000E+00  0.00000000E+00
  0.00000000E+00  0.00000000E+00  0.00000000E+00
  0.00000000E+00  0.00000000E+00  0.00000000E+00
  0.00000000E+00  0.00000000E+00  0.00000000E+00
