Al1Ba1Si1 #187 - (Al1Ba1Si1_ICSD_162866)
   1.00000000000000     
     2.1597619127486847   -3.7402769036070693    0.0000000000000000
     2.1597619127486847    3.7402769036070693    0.0000000000000000
     0.0000000000000000    0.0000000000000000    5.1849555640514220
   1   1   1
Direct
  0.6666514819725151  0.3333485180274849  0.5000000000000000
  0.0000008712646178  0.9999991287353822  0.0000000000000000
  0.3333476467628671  0.6666523532371329  0.5000000000000000
 
  0.00000000E+00  0.00000000E+00  0.00000000E+00
  0.00000000E+00  0.00000000E+00  0.00000000E+00
  0.00000000E+00  0.00000000E+00  0.00000000E+00
