Dy5Ni1Pb3   [HEX,HEX,hP18] (STD_PRIM doi
   1.00000000000000     
     4.5867661386920799   -7.9445010461488206   -0.0000000000000000
     4.5867661386920799    7.9445010461488206   -0.0000000000000000
     0.0000000000000000    0.0000000000000000    6.7187894139695752
  10   2   6
Direct
  0.2379352065769977  0.0000067379481986  0.2500000000000000
  0.0000067379481986  0.2379352065769977  0.2500000000000000
  0.7620595774837235  0.7620595774837235  0.2500000000000000
  0.7620647934230023  0.9999932620518014  0.7500000000000000
  0.9999932620518014  0.7620647934230023  0.7500000000000000
  0.2379404225162764  0.2379404225162764  0.7500000000000000
  0.3333236600819037  0.6666763399180963  0.0000000000000000
  0.6666763399180963  0.3333236600819037  0.5000000000000000
  0.6666763399180963  0.3333236600819037  0.0000000000000000
  0.3333236600819037  0.6666763399180963  0.5000000000000000
  0.0000000000000000 -0.0000000000000000  0.0000000000000000
 -0.0000000000000000  0.0000000000000000  0.5000000000000000
  0.6002982085353751  0.9999936861353773  0.2500000000000000
  0.9999936861353773  0.6002982085353751  0.2500000000000000
  0.3997117384926653  0.3997117384926653  0.2500000000000000
  0.3997017914646249  0.0000063138646227  0.7500000000000000
  0.0000063138646227  0.3997017914646249  0.7500000000000000
  0.6002882615073347  0.6002882615073347  0.7500000000000000
 
  0.00000000E+00  0.00000000E+00  0.00000000E+00
  0.00000000E+00  0.00000000E+00  0.00000000E+00
  0.00000000E+00  0.00000000E+00  0.00000000E+00
  0.00000000E+00  0.00000000E+00  0.00000000E+00
  0.00000000E+00  0.00000000E+00  0.00000000E+00
  0.00000000E+00  0.00000000E+00  0.00000000E+00
  0.00000000E+00  0.00000000E+00  0.00000000E+00
  0.00000000E+00  0.00000000E+00  0.00000000E+00
  0.00000000E+00  0.00000000E+00  0.00000000E+00
  0.00000000E+00  0.00000000E+00  0.00000000E+00
  0.00000000E+00  0.00000000E+00  0.00000000E+00
  0.00000000E+00  0.00000000E+00  0.00000000E+00
  0.00000000E+00  0.00000000E+00  0.00000000E+00
  0.00000000E+00  0.00000000E+00  0.00000000E+00
  0.00000000E+00  0.00000000E+00  0.00000000E+00
  0.00000000E+00  0.00000000E+00  0.00000000E+00
  0.00000000E+00  0.00000000E+00  0.00000000E+00
  0.00000000E+00  0.00000000E+00  0.00000000E+00
