O4P1Pr1   [BCT,BCT1,tI24] (STD_PRIM doi:
   1.00000000000000     
    -3.6097723156587982    3.6097723156587982    3.1432892180837082
     3.6097723156587982   -3.6097723156587982    3.1432892180837082
     3.6097723156587982    3.6097723156587982   -3.1432892180837082
   8   2   2
Direct
  0.3025111460305467  0.2227002664841464  0.0798108795464074
  0.6428893869377390  0.2227002664841464  0.4201891204535926
  0.2227002664841464  0.6428893869377390  0.9201891204535926
  0.2227002664841464  0.3025111460305467  0.5798108795464074
  0.3571106130622610  0.7772997335158536  0.5798108795464074
  0.6974888539694533  0.7772997335158536  0.9201891204535926
  0.7772997335158536  0.3571106130622610  0.0798108795464074
  0.7772997335158536  0.6974888539694533  0.4201891204535926
  0.6250000000000000  0.3750000000000000  0.2500000000000000
  0.3750000000000000  0.6250000000000000  0.7500000000000000
  0.8750000000000000  0.1250000000000000  0.7500000000000000
  0.1250000000000000  0.8750000000000000  0.2500000000000000
 
  0.00000000E+00  0.00000000E+00  0.00000000E+00
  0.00000000E+00  0.00000000E+00  0.00000000E+00
  0.00000000E+00  0.00000000E+00  0.00000000E+00
  0.00000000E+00  0.00000000E+00  0.00000000E+00
  0.00000000E+00  0.00000000E+00  0.00000000E+00
  0.00000000E+00  0.00000000E+00  0.00000000E+00
  0.00000000E+00  0.00000000E+00  0.00000000E+00
  0.00000000E+00  0.00000000E+00  0.00000000E+00
  0.00000000E+00  0.00000000E+00  0.00000000E+00
  0.00000000E+00  0.00000000E+00  0.00000000E+00
  0.00000000E+00  0.00000000E+00  0.00000000E+00
  0.00000000E+00  0.00000000E+00  0.00000000E+00
