S1 #154 - (S1_ICSD_281124) - S1 [S1] hP9
   1.00000000000000     
     4.3711974221012309   -7.5711139034697803    0.0000000000000000
     4.3711782642997825    7.5711249642316067    0.0000000000000000
     0.0000000000000000    0.0000000000000000    4.4058360841666033
   9
Direct
  0.7523294362744777  0.3148701656491856  0.6050027045121085
  0.6851298343508143  0.4374592706252922  0.2716693711787802
  0.5625407293747081  0.2476705637255221  0.9383360378454371
  0.3148674232907940  0.7523276842399644  0.3950066640201711
  0.4374602609491705  0.6851325767092059  0.7283399973534999
  0.2476723157600356  0.5625397390508293  0.0616733306868426
  0.9035246580502965  0.0000002681123331  0.1666906314677261
  0.9999997318876666  0.9035243899379634  0.8333572981343973
  0.0964756100620370  0.0964753419497038  0.5000239648010545
 
  0.00000000E+00  0.00000000E+00  0.00000000E+00
  0.00000000E+00  0.00000000E+00  0.00000000E+00
  0.00000000E+00  0.00000000E+00  0.00000000E+00
  0.00000000E+00  0.00000000E+00  0.00000000E+00
  0.00000000E+00  0.00000000E+00  0.00000000E+00
  0.00000000E+00  0.00000000E+00  0.00000000E+00
  0.00000000E+00  0.00000000E+00  0.00000000E+00
  0.00000000E+00  0.00000000E+00  0.00000000E+00
  0.00000000E+00  0.00000000E+00  0.00000000E+00
