Mo3N1Pt2   [CUB,CUB,cP24] (STD_PRIM doi:
   1.00000000000000     
     6.9031008191606080    0.0000000000000000    0.0000000000000000
    -0.0000000000000000    6.9031008191606080    0.0000000000000000
    -0.0000000000000000    0.0000000000000000    6.9031008191606080
  12   4   8
Direct
  0.8001807941434309  0.0501807941434309  0.1250000000000000
  0.6998192058565691  0.9498192058565691  0.6250000000000000
  0.1998192058565691  0.5501807941434309  0.3750000000000000
  0.3001807941434309  0.4498192058565691  0.8750000000000000
  0.1250000000000000  0.8001807941434309  0.0501807941434309
  0.6250000000000000  0.6998192058565691  0.9498192058565691
  0.3750000000000000  0.1998192058565691  0.5501807941434309
  0.8750000000000000  0.3001807941434309  0.4498192058565691
  0.0501807941434309  0.1250000000000000  0.8001807941434309
  0.9498192058565691  0.6250000000000000  0.6998192058565691
  0.5501807941434309  0.3750000000000000  0.1998192058565691
  0.4498192058565691  0.8750000000000000  0.3001807941434309
  0.8750000000000000  0.8750000000000000  0.8750000000000000
  0.6250000000000000  0.1250000000000000  0.3750000000000000
  0.1250000000000000  0.3750000000000000  0.6250000000000000
  0.3750000000000000  0.6250000000000000  0.1250000000000000
  0.1927680576116371  0.1927680576116371  0.1927680576116371
  0.3072319423883630  0.8072319423883629  0.6927680576116371
  0.8072319423883629  0.6927680576116371  0.3072319423883630
  0.6927680576116371  0.3072319423883630  0.8072319423883629
  0.9427680576116371  0.4427680576116370  0.0572319423883630
  0.5572319423883629  0.5572319423883629  0.5572319423883629
  0.4427680576116370  0.0572319423883630  0.9427680576116371
  0.0572319423883630  0.9427680576116371  0.4427680576116370
 
  0.00000000E+00  0.00000000E+00  0.00000000E+00
  0.00000000E+00  0.00000000E+00  0.00000000E+00
  0.00000000E+00  0.00000000E+00  0.00000000E+00
  0.00000000E+00  0.00000000E+00  0.00000000E+00
  0.00000000E+00  0.00000000E+00  0.00000000E+00
  0.00000000E+00  0.00000000E+00  0.00000000E+00
  0.00000000E+00  0.00000000E+00  0.00000000E+00
  0.00000000E+00  0.00000000E+00  0.00000000E+00
  0.00000000E+00  0.00000000E+00  0.00000000E+00
  0.00000000E+00  0.00000000E+00  0.00000000E+00
  0.00000000E+00  0.00000000E+00  0.00000000E+00
  0.00000000E+00  0.00000000E+00  0.00000000E+00
  0.00000000E+00  0.00000000E+00  0.00000000E+00
  0.00000000E+00  0.00000000E+00  0.00000000E+00
  0.00000000E+00  0.00000000E+00  0.00000000E+00
  0.00000000E+00  0.00000000E+00  0.00000000E+00
  0.00000000E+00  0.00000000E+00  0.00000000E+00
  0.00000000E+00  0.00000000E+00  0.00000000E+00
  0.00000000E+00  0.00000000E+00  0.00000000E+00
  0.00000000E+00  0.00000000E+00  0.00000000E+00
  0.00000000E+00  0.00000000E+00  0.00000000E+00
  0.00000000E+00  0.00000000E+00  0.00000000E+00
  0.00000000E+00  0.00000000E+00  0.00000000E+00
  0.00000000E+00  0.00000000E+00  0.00000000E+00
