As1Ca2   [BCT,BCT2,tI12] (STD_PRIM doi:1
   1.00000000000000     
    -2.2880330822531647    2.2880330822531647    7.9443091755669775
     2.2880330822531647   -2.2880330822531647    7.9443091755669775
     2.2880330822531647    2.2880330822531647   -7.9443091755669775
   2   4
Direct
  0.1344319608435126  0.1344319608435126  0.0000000000000000
  0.8655680391564874  0.8655680391564874  0.0000000000000000
  0.3208185704258416  0.3208185704258416 -0.0000000000000000
  0.6791814295741583  0.6791814295741583  0.0000000000000000
 -0.0000000000000000  0.5000000000000000  0.5000000000000000
  0.5000000000000000  0.0000000000000000  0.5000000000000000
 
  0.00000000E+00  0.00000000E+00  0.00000000E+00
  0.00000000E+00  0.00000000E+00  0.00000000E+00
  0.00000000E+00  0.00000000E+00  0.00000000E+00
  0.00000000E+00  0.00000000E+00  0.00000000E+00
  0.00000000E+00  0.00000000E+00  0.00000000E+00
  0.00000000E+00  0.00000000E+00  0.00000000E+00
