B3C1Nb3   [ORCC,ORCC,oS28] (STD_PRIM doi
   1.00000000000000     
     1.6427083465811587  -14.4247585692097200    0.0000000000000000
     1.6427083465811587   14.4247585692097200   -0.0000000000000000
     0.0000000000000000   -0.0000000000000000    3.1437988370736454
   6   2   6
Direct
  0.0789544729649150  0.9210455270350850  0.7500000000000000
  0.9210455270350850  0.0789544729649150  0.2500000000000000
  0.8877533840608222  0.1122466159391778  0.7500000000000000
  0.1122466159391778  0.8877533840608222  0.2500000000000000
  0.0155188742399960  0.9844811257600039  0.7500000000000000
  0.9844811257600039  0.0155188742399960  0.2500000000000000
  0.2878043753156291  0.7121956246843709  0.2500000000000000
  0.7121956246843709  0.2878043753156291  0.7500000000000000
  0.3619678025361168  0.6380321974638832  0.2500000000000000
  0.6380321974638832  0.3619678025361168  0.7500000000000000
  0.7874192049898285  0.2125807950101715  0.7500000000000000
  0.2125807950101715  0.7874192049898285  0.2500000000000000
  0.4532225975623934  0.5467774024376065  0.7500000000000000
  0.5467774024376065  0.4532225975623934  0.2500000000000000
 
  0.00000000E+00  0.00000000E+00  0.00000000E+00
  0.00000000E+00  0.00000000E+00  0.00000000E+00
  0.00000000E+00  0.00000000E+00  0.00000000E+00
  0.00000000E+00  0.00000000E+00  0.00000000E+00
  0.00000000E+00  0.00000000E+00  0.00000000E+00
  0.00000000E+00  0.00000000E+00  0.00000000E+00
  0.00000000E+00  0.00000000E+00  0.00000000E+00
  0.00000000E+00  0.00000000E+00  0.00000000E+00
  0.00000000E+00  0.00000000E+00  0.00000000E+00
  0.00000000E+00  0.00000000E+00  0.00000000E+00
  0.00000000E+00  0.00000000E+00  0.00000000E+00
  0.00000000E+00  0.00000000E+00  0.00000000E+00
  0.00000000E+00  0.00000000E+00  0.00000000E+00
  0.00000000E+00  0.00000000E+00  0.00000000E+00
