Dy2Ge2Mg1   [TET,TET,tP10] (STD_PRIM doi
   1.00000000000000     
     7.2678912390196819    0.0000000000000000    0.0000000000000000
     0.0000000000000000    7.2678912390196819    0.0000000000000000
     0.0000000000000000   -0.0000000000000000    4.2443888853469618
   4   4   2
Direct
  0.1773272882189005  0.6773272882189005  0.5000000000000000
  0.8226727117810995  0.3226727117810995  0.5000000000000000
  0.3226727117810995  0.1773272882189005  0.5000000000000000
  0.6773272882189005  0.8226727117810995  0.5000000000000000
  0.3764250322329855  0.8764250322329854  0.0000000000000000
  0.6235749677670146  0.1235749677670145  0.0000000000000000
  0.1235749677670145  0.3764250322329855 -0.0000000000000000
  0.8764250322329854  0.6235749677670146  0.0000000000000000
  0.0000000000000000  0.0000000000000000  0.0000000000000000
  0.5000000000000000  0.5000000000000000  0.0000000000000000
 
  0.00000000E+00  0.00000000E+00  0.00000000E+00
  0.00000000E+00  0.00000000E+00  0.00000000E+00
  0.00000000E+00  0.00000000E+00  0.00000000E+00
  0.00000000E+00  0.00000000E+00  0.00000000E+00
  0.00000000E+00  0.00000000E+00  0.00000000E+00
  0.00000000E+00  0.00000000E+00  0.00000000E+00
  0.00000000E+00  0.00000000E+00  0.00000000E+00
  0.00000000E+00  0.00000000E+00  0.00000000E+00
  0.00000000E+00  0.00000000E+00  0.00000000E+00
  0.00000000E+00  0.00000000E+00  0.00000000E+00
