Co1Sn1Tb1   [ORC,ORC,oP12] (STD_PRIM doi
   1.00000000000000     
     4.6569059087441715   -0.0000000000000000    0.0000000000000000
    -0.0000000000000000    7.4914604971333896    0.0000000000000000
     0.0000000000000000    0.0000000000000000    7.8410730637893007
   4   4   4
Direct
  0.2500000000000000  0.1582860285312046  0.4287447283570208
  0.7500000000000000  0.3417139714687955  0.9287447283570206
  0.7500000000000000  0.8417139714687955  0.5712552716429794
  0.2500000000000000  0.6582860285312045  0.0712552716429793
  0.2500000000000000  0.7771373906198737  0.4049117838311911
  0.7500000000000000  0.7228626093801263  0.9049117838311910
  0.7500000000000000  0.2228626093801261  0.5950882161688090
  0.2500000000000000  0.2771373906198738  0.0950882161688090
  0.2500000000000000  0.9878346639648751  0.7830688480845900
  0.7500000000000000  0.5121653360351249  0.2830688480845898
  0.7500000000000000  0.0121653360351246  0.2169311519154102
  0.2500000000000000  0.4878346639648756  0.7169311519154100
 
  0.00000000E+00  0.00000000E+00  0.00000000E+00
  0.00000000E+00  0.00000000E+00  0.00000000E+00
  0.00000000E+00  0.00000000E+00  0.00000000E+00
  0.00000000E+00  0.00000000E+00  0.00000000E+00
  0.00000000E+00  0.00000000E+00  0.00000000E+00
  0.00000000E+00  0.00000000E+00  0.00000000E+00
  0.00000000E+00  0.00000000E+00  0.00000000E+00
  0.00000000E+00  0.00000000E+00  0.00000000E+00
  0.00000000E+00  0.00000000E+00  0.00000000E+00
  0.00000000E+00  0.00000000E+00  0.00000000E+00
  0.00000000E+00  0.00000000E+00  0.00000000E+00
  0.00000000E+00  0.00000000E+00  0.00000000E+00
