Cu4Ni1Yb1   [FCC,FCC,cF24] (STD_PRIM doi
   1.22474500000000     
    -0.0000000000000000    2.8550569885226396    2.8550569885226396
     2.8550569885226396    0.0000000000000000    2.8550569885226396
     2.8550569885226396    2.8550569885226396    0.0000000000000000
   4   1   1
Direct
  0.6240280201274581  0.6240280201274581  0.1279159396176259
  0.6240280201274581  0.1279159396176259  0.6240280201274581
  0.6240280201274581  0.6240280201274581  0.6240280201274581
  0.1279159396176259  0.6240280201274581  0.6240280201274581
  0.2500000000000000  0.2500000000000000  0.2500000000000000
 -0.0000000000000000 -0.0000000000000000 -0.0000000000000000
 
  0.00000000E+00  0.00000000E+00  0.00000000E+00
  0.00000000E+00  0.00000000E+00  0.00000000E+00
  0.00000000E+00  0.00000000E+00  0.00000000E+00
  0.00000000E+00  0.00000000E+00  0.00000000E+00
  0.00000000E+00  0.00000000E+00  0.00000000E+00
  0.00000000E+00  0.00000000E+00  0.00000000E+00
