P1Sc3   [ORC,ORC,oP16] (STD_PRIM doi:10.
   1.00000000000000     
     5.9348266022411043   -0.0000000000000000    0.0000000000000000
     0.0000000000000000    6.8333343353966001    0.0000000000000000
     0.0000000000000000    0.0000000000000000    8.6626831606144830
   4  12
Direct
  0.5728629179570027  0.3722973560598989  0.7500000000000000
  0.0728629179570027  0.1277026439401010  0.2500000000000000
  0.4271370820429973  0.6277026439401010  0.2500000000000000
  0.9271370820429973  0.8722973560598990  0.7500000000000000
  0.8546583462047913  0.1804356052306184  0.9467525779077259
  0.3546583462047913  0.3195643947693817  0.0532474220922741
  0.1453416537952087  0.8195643947693816  0.4467525779077259
  0.6453416537952087  0.6804356052306184  0.5532474220922741
  0.1453416537952087  0.8195643947693816  0.0532474220922741
  0.6453416537952087  0.6804356052306184  0.9467525779077259
  0.8546583462047913  0.1804356052306184  0.5532474220922741
  0.3546583462047913  0.3195643947693817  0.4467525779077259
  0.3496698697759931  0.0287766789990365  0.7500000000000000
  0.8496698697759932  0.4712233210009634  0.2500000000000000
  0.6503301302240068  0.9712233210009634  0.2500000000000000
  0.1503301302240069  0.5287766789990366  0.7500000000000000
 
  0.00000000E+00  0.00000000E+00  0.00000000E+00
  0.00000000E+00  0.00000000E+00  0.00000000E+00
  0.00000000E+00  0.00000000E+00  0.00000000E+00
  0.00000000E+00  0.00000000E+00  0.00000000E+00
  0.00000000E+00  0.00000000E+00  0.00000000E+00
  0.00000000E+00  0.00000000E+00  0.00000000E+00
  0.00000000E+00  0.00000000E+00  0.00000000E+00
  0.00000000E+00  0.00000000E+00  0.00000000E+00
  0.00000000E+00  0.00000000E+00  0.00000000E+00
  0.00000000E+00  0.00000000E+00  0.00000000E+00
  0.00000000E+00  0.00000000E+00  0.00000000E+00
  0.00000000E+00  0.00000000E+00  0.00000000E+00
  0.00000000E+00  0.00000000E+00  0.00000000E+00
  0.00000000E+00  0.00000000E+00  0.00000000E+00
  0.00000000E+00  0.00000000E+00  0.00000000E+00
  0.00000000E+00  0.00000000E+00  0.00000000E+00
