Sb1U1   [FCC,FCC,cF8] (STD_PRIM doi:10.1
   1.22474500000000     
     0.0000000000000000    2.6384193514082481    2.6384193514082481
     2.6384193514082481    0.0000000000000000    2.6384193514082481
     2.6384193514082481    2.6384193514082481   -0.0000000000000000
   1   1
Direct
  0.0000000000000000  0.0000000000000000  0.0000000000000000
  0.5000000000000000  0.5000000000000000  0.5000000000000000
 
  0.00000000E+00  0.00000000E+00  0.00000000E+00
  0.00000000E+00  0.00000000E+00  0.00000000E+00
