C1Ge1Ti2   [HEX,HEX,hP8] (STD_PRIM doi:1
   1.00000000000000     
     1.5710239539425608   -2.7210933081362638    0.0000000000000000
     1.5709944448882729    2.7210762710758267    0.0000000000000000
     0.0000000000000000   -0.0000000000000000   13.0654723177140895
   2   2   4
Direct
  0.0000000000000000  0.0000000000000000  0.0000000000000000
  0.0000000000000000  0.0000000000000000  0.5000000000000000
  0.6666678473244809  0.3333356946489688  0.7500000000000000
  0.3333321526755191  0.6666643053510312  0.2500000000000000
  0.6666681560699543  0.3333363121399157  0.0900089083986479
  0.3333318439300457  0.6666636878600843  0.5900089083986478
  0.3333318439300457  0.6666636878600843  0.9099910916013522
  0.6666681560699543  0.3333363121399157  0.4099910916013521
 
  0.00000000E+00  0.00000000E+00  0.00000000E+00
  0.00000000E+00  0.00000000E+00  0.00000000E+00
  0.00000000E+00  0.00000000E+00  0.00000000E+00
  0.00000000E+00  0.00000000E+00  0.00000000E+00
  0.00000000E+00  0.00000000E+00  0.00000000E+00
  0.00000000E+00  0.00000000E+00  0.00000000E+00
  0.00000000E+00  0.00000000E+00  0.00000000E+00
  0.00000000E+00  0.00000000E+00  0.00000000E+00
