C1Ga1Sc2   [HEX,HEX,hP8] (STD_PRIM doi:1
   1.00000000000000     
     1.6775659251883495   -2.9056294154725126   -0.0000000000000000
     1.6775224031477016    2.9056042880106299    0.0000000000000000
     0.0000000000000000    0.0000000000000000   14.8504349782713838
   2   2   4
Direct
  0.0000000000000000  0.0000000000000000 -0.0000000000000000
 -0.0000000000000000 -0.0000000000000000  0.5000000000000000
  0.6666827644175293  0.3333655288350584  0.7500000000000000
  0.3333172355824708  0.6666344711649416  0.2500000000000000
  0.6666646987853397  0.3333293975706794  0.0847005094460560
  0.3333353012146603  0.6666706024293206  0.5847005094460560
  0.3333353012146603  0.6666706024293206  0.9152994905539440
  0.6666646987853397  0.3333293975706794  0.4152994905539440
 
  0.00000000E+00  0.00000000E+00  0.00000000E+00
  0.00000000E+00  0.00000000E+00  0.00000000E+00
  0.00000000E+00  0.00000000E+00  0.00000000E+00
  0.00000000E+00  0.00000000E+00  0.00000000E+00
  0.00000000E+00  0.00000000E+00  0.00000000E+00
  0.00000000E+00  0.00000000E+00  0.00000000E+00
  0.00000000E+00  0.00000000E+00  0.00000000E+00
  0.00000000E+00  0.00000000E+00  0.00000000E+00
