Co4Er3Ge13   [CUB,CUB,cP40] (STD_PRIM do
   1.00000000000000     
     8.7099359353198000    0.0000000000000000    0.0000000000000000
    -0.0000000000000000    8.7099359353198000   -0.0000000000000000
    -0.0000000000000000   -0.0000000000000000    8.7099359353198000
   8   6  26
Direct
  0.2500000000000000  0.2500000000000000  0.2500000000000000
  0.7500000000000000  0.7500000000000000  0.2500000000000000
  0.7500000000000000  0.2500000000000000  0.7500000000000000
  0.2500000000000000  0.7500000000000000  0.7500000000000000
  0.7500000000000000  0.7500000000000000  0.7500000000000000
  0.2500000000000000  0.2500000000000000  0.7500000000000000
  0.2500000000000000  0.7500000000000000  0.2500000000000000
  0.7500000000000000  0.2500000000000000  0.2500000000000000
  0.2500000000000000  0.0000000000000000  0.5000000000000000
  0.7500000000000000  0.0000000000000000  0.5000000000000000
  0.5000000000000000  0.2500000000000000 -0.0000000000000000
  0.5000000000000000  0.7500000000000000  0.0000000000000000
  0.0000000000000000  0.5000000000000000  0.2500000000000000
  0.0000000000000000  0.5000000000000000  0.7500000000000000
  0.0000000000000000  0.0000000000000000  0.0000000000000000
  0.5000000000000000  0.5000000000000000  0.5000000000000000
  0.0000000000000000  0.1541459199584820  0.3044808191513234
  0.0000000000000000  0.8458540800415180  0.3044808191513234
 -0.0000000000000000  0.1541459199584820  0.6955191808486767
 -0.0000000000000000  0.8458540800415180  0.6955191808486767
  0.3044808191513234 -0.0000000000000000  0.1541459199584820
  0.3044808191513234  0.0000000000000000  0.8458540800415180
  0.6955191808486767 -0.0000000000000000  0.1541459199584820
  0.6955191808486767  0.0000000000000000  0.8458540800415180
  0.1541459199584820  0.3044808191513234  0.0000000000000000
  0.8458540800415180  0.3044808191513234  0.0000000000000000
  0.1541459199584820  0.6955191808486767 -0.0000000000000000
  0.8458540800415180  0.6955191808486767 -0.0000000000000000
  0.6541459199584820  0.5000000000000000  0.1955191808486767
  0.3458540800415180  0.5000000000000000  0.1955191808486767
  0.6541459199584820  0.5000000000000000  0.8044808191513233
  0.3458540800415180  0.5000000000000000  0.8044808191513233
  0.5000000000000000  0.8044808191513233  0.3458540800415180
  0.5000000000000000  0.8044808191513233  0.6541459199584820
  0.5000000000000000  0.1955191808486767  0.3458540800415180
  0.5000000000000000  0.1955191808486767  0.6541459199584820
  0.8044808191513233  0.6541459199584820  0.5000000000000000
  0.8044808191513233  0.3458540800415180  0.5000000000000000
  0.1955191808486767  0.6541459199584820  0.5000000000000000
  0.1955191808486767  0.3458540800415180  0.5000000000000000
 
  0.00000000E+00  0.00000000E+00  0.00000000E+00
  0.00000000E+00  0.00000000E+00  0.00000000E+00
  0.00000000E+00  0.00000000E+00  0.00000000E+00
  0.00000000E+00  0.00000000E+00  0.00000000E+00
  0.00000000E+00  0.00000000E+00  0.00000000E+00
  0.00000000E+00  0.00000000E+00  0.00000000E+00
  0.00000000E+00  0.00000000E+00  0.00000000E+00
  0.00000000E+00  0.00000000E+00  0.00000000E+00
  0.00000000E+00  0.00000000E+00  0.00000000E+00
  0.00000000E+00  0.00000000E+00  0.00000000E+00
  0.00000000E+00  0.00000000E+00  0.00000000E+00
  0.00000000E+00  0.00000000E+00  0.00000000E+00
  0.00000000E+00  0.00000000E+00  0.00000000E+00
  0.00000000E+00  0.00000000E+00  0.00000000E+00
  0.00000000E+00  0.00000000E+00  0.00000000E+00
  0.00000000E+00  0.00000000E+00  0.00000000E+00
  0.00000000E+00  0.00000000E+00  0.00000000E+00
  0.00000000E+00  0.00000000E+00  0.00000000E+00
  0.00000000E+00  0.00000000E+00  0.00000000E+00
  0.00000000E+00  0.00000000E+00  0.00000000E+00
  0.00000000E+00  0.00000000E+00  0.00000000E+00
  0.00000000E+00  0.00000000E+00  0.00000000E+00
  0.00000000E+00  0.00000000E+00  0.00000000E+00
  0.00000000E+00  0.00000000E+00  0.00000000E+00
  0.00000000E+00  0.00000000E+00  0.00000000E+00
  0.00000000E+00  0.00000000E+00  0.00000000E+00
  0.00000000E+00  0.00000000E+00  0.00000000E+00
  0.00000000E+00  0.00000000E+00  0.00000000E+00
  0.00000000E+00  0.00000000E+00  0.00000000E+00
  0.00000000E+00  0.00000000E+00  0.00000000E+00
  0.00000000E+00  0.00000000E+00  0.00000000E+00
  0.00000000E+00  0.00000000E+00  0.00000000E+00
  0.00000000E+00  0.00000000E+00  0.00000000E+00
  0.00000000E+00  0.00000000E+00  0.00000000E+00
  0.00000000E+00  0.00000000E+00  0.00000000E+00
  0.00000000E+00  0.00000000E+00  0.00000000E+00
  0.00000000E+00  0.00000000E+00  0.00000000E+00
  0.00000000E+00  0.00000000E+00  0.00000000E+00
  0.00000000E+00  0.00000000E+00  0.00000000E+00
  0.00000000E+00  0.00000000E+00  0.00000000E+00
