Cu1Ga1Te2 #122 - (Cu1Ga1Te2_ICSD_28738) 
   1.00000000000000     
    -3.0545906720045592    3.0545906720045592    6.0755969117650679
     3.0545906720045592   -3.0545906720045592    6.0755969117650679
     3.0545906720045592    3.0545906720045592   -6.0755969117650679
   2   2   4
Direct
  0.0000000000000000  0.0000000000000000  0.0000000000000000
  0.7500000000000000  0.2500000000000000  0.5000000000000000
  0.5000000000000000  0.5000000000000000  0.0000000000000000
  0.2500000000000000  0.7500000000000000  0.5000000000000000
  0.3750000000000000  0.3650756119929084  0.4900756119929084
  0.8750000000000000  0.8849243880070916  0.5099243880070916
  0.6349243880070916  0.1250000000000000  0.0099243880070916
  0.1150756119929084  0.6250000000000000  0.9900756119929084
 
  0.00000000E+00  0.00000000E+00  0.00000000E+00
  0.00000000E+00  0.00000000E+00  0.00000000E+00
  0.00000000E+00  0.00000000E+00  0.00000000E+00
  0.00000000E+00  0.00000000E+00  0.00000000E+00
  0.00000000E+00  0.00000000E+00  0.00000000E+00
  0.00000000E+00  0.00000000E+00  0.00000000E+00
  0.00000000E+00  0.00000000E+00  0.00000000E+00
  0.00000000E+00  0.00000000E+00  0.00000000E+00
