O2Ti1   [ORC,ORC,oP12] (STD_PRIM doi:10.
   1.00000000000000     
     4.6128783294075815    0.0000000000000000    0.0000000000000000
     0.0000000000000000    5.0297132459090346    0.0000000000000000
     0.0000000000000000    0.0000000000000000    5.5894956549816186
   8   4
Direct
  0.7273556804670688  0.4184549352891435  0.3824435666130681
  0.7726443195329312  0.9184549352891435  0.1175564333869319
  0.2726443195329312  0.0815450647108565  0.3824435666130681
  0.2273556804670688  0.5815450647108565  0.1175564333869319
  0.2726443195329312  0.5815450647108565  0.6175564333869319
  0.2273556804670688  0.0815450647108565  0.8824435666130681
  0.7273556804670688  0.9184549352891435  0.6175564333869319
  0.7726443195329312  0.4184549352891435  0.8824435666130681
  0.0000000000000000  0.2500000000000000  0.1624982710841101
  0.5000000000000000  0.7500000000000000  0.3375017289158899
  0.0000000000000000  0.7500000000000000  0.8375017289158898
  0.5000000000000000  0.2500000000000000  0.6624982710841102
 
  0.00000000E+00  0.00000000E+00  0.00000000E+00
  0.00000000E+00  0.00000000E+00  0.00000000E+00
  0.00000000E+00  0.00000000E+00  0.00000000E+00
  0.00000000E+00  0.00000000E+00  0.00000000E+00
  0.00000000E+00  0.00000000E+00  0.00000000E+00
  0.00000000E+00  0.00000000E+00  0.00000000E+00
  0.00000000E+00  0.00000000E+00  0.00000000E+00
  0.00000000E+00  0.00000000E+00  0.00000000E+00
  0.00000000E+00  0.00000000E+00  0.00000000E+00
  0.00000000E+00  0.00000000E+00  0.00000000E+00
  0.00000000E+00  0.00000000E+00  0.00000000E+00
  0.00000000E+00  0.00000000E+00  0.00000000E+00
