Au4Cr1   [BCT,BCT1,tI10] (STD_PRIM doi:1
   1.00000000000000     
    -3.2776903272351920    3.2776903364191150    2.0671065297786475
     3.2776903272351920   -3.2776903364191150    2.0671065297786475
     3.2776903364191150    3.2776903272351920   -2.0671065297786475
   4   1
Direct
  0.6018018846226069  0.7980753125338179  0.3998771971564247
  0.3981981153773932  0.2019246874661821  0.6001228028435753
  0.7980753125338179  0.3981981153773932  0.1962734279112111
  0.2019246874661821  0.6018018846226069  0.8037265720887888
  0.0000000000000000 -0.0000000000000000 -0.0000000000000000
 
  0.00000000E+00  0.00000000E+00  0.00000000E+00
  0.00000000E+00  0.00000000E+00  0.00000000E+00
  0.00000000E+00  0.00000000E+00  0.00000000E+00
  0.00000000E+00  0.00000000E+00  0.00000000E+00
  0.00000000E+00  0.00000000E+00  0.00000000E+00
