Al1Zr2   [BCT,BCT1,tI12] (STD_PRIM doi:1
   1.00000000000000     
    -3.4228188187584934    3.4228188187584934    2.7030637784826044
     3.4228188187584934   -3.4228188187584934    2.7030637784826044
     3.4228188187584934    3.4228188187584934   -2.7030637784826044
   2   4
Direct
  0.2500000000000000  0.2500000000000000  0.0000000000000000
  0.7500000000000000  0.7500000000000000 -0.0000000000000000
  0.8480567950677670  0.6519432049322330  0.5000000000000000
  0.1519432049322330  0.3480567950677669  0.5000000000000000
  0.6519432049322330  0.1519432049322330  0.8038864098644590
  0.3480567950677669  0.8480567950677670  0.1961135901355411
 
  0.00000000E+00  0.00000000E+00  0.00000000E+00
  0.00000000E+00  0.00000000E+00  0.00000000E+00
  0.00000000E+00  0.00000000E+00  0.00000000E+00
  0.00000000E+00  0.00000000E+00  0.00000000E+00
  0.00000000E+00  0.00000000E+00  0.00000000E+00
  0.00000000E+00  0.00000000E+00  0.00000000E+00
