H3U1   [CUB,CUB,cP32] (STD_PRIM doi:10.1
   1.00000000000000     
     6.7293130391690505   -0.0000000000000000   -0.0000000000000000
     0.0000000000000000    6.7293130391690505    0.0000000000000000
     0.0000000000000000    0.0000000000000000    6.7293130391690505
  24   8
Direct
 -0.0000000000000000  0.1561110869575367  0.3088733826428215
 -0.0000000000000000  0.8438889130424633  0.3088733826428215
  0.0000000000000000  0.1561110869575367  0.6911266173571785
  0.0000000000000000  0.8438889130424633  0.6911266173571785
  0.3088733826428215  0.0000000000000000  0.1561110869575367
  0.3088733826428215  0.0000000000000000  0.8438889130424633
  0.6911266173571785 -0.0000000000000000  0.1561110869575367
  0.6911266173571785 -0.0000000000000000  0.8438889130424633
  0.1561110869575367  0.3088733826428215 -0.0000000000000000
  0.8438889130424633  0.3088733826428215 -0.0000000000000000
  0.1561110869575367  0.6911266173571785  0.0000000000000000
  0.8438889130424633  0.6911266173571785  0.0000000000000000
  0.6561110869575367  0.5000000000000000  0.1911266173571785
  0.3438889130424633  0.5000000000000000  0.1911266173571785
  0.6561110869575367  0.5000000000000000  0.8088733826428215
  0.3438889130424633  0.5000000000000000  0.8088733826428215
  0.5000000000000000  0.8088733826428215  0.3438889130424633
  0.5000000000000000  0.8088733826428215  0.6561110869575367
  0.5000000000000000  0.1911266173571785  0.3438889130424633
  0.5000000000000000  0.1911266173571785  0.6561110869575367
  0.8088733826428215  0.6561110869575367  0.5000000000000000
  0.8088733826428215  0.3438889130424633  0.5000000000000000
  0.1911266173571785  0.6561110869575367  0.5000000000000000
  0.1911266173571785  0.3438889130424633  0.5000000000000000
  0.0000000000000000  0.0000000000000000  0.0000000000000000
  0.5000000000000000  0.5000000000000000  0.5000000000000000
  0.2500000000000000  0.0000000000000000  0.5000000000000000
  0.7500000000000000 -0.0000000000000000  0.5000000000000000
  0.5000000000000000  0.2500000000000000 -0.0000000000000000
  0.5000000000000000  0.7500000000000000  0.0000000000000000
 -0.0000000000000000  0.5000000000000000  0.2500000000000000
  0.0000000000000000  0.5000000000000000  0.7500000000000000
 
  0.00000000E+00  0.00000000E+00  0.00000000E+00
  0.00000000E+00  0.00000000E+00  0.00000000E+00
  0.00000000E+00  0.00000000E+00  0.00000000E+00
  0.00000000E+00  0.00000000E+00  0.00000000E+00
  0.00000000E+00  0.00000000E+00  0.00000000E+00
  0.00000000E+00  0.00000000E+00  0.00000000E+00
  0.00000000E+00  0.00000000E+00  0.00000000E+00
  0.00000000E+00  0.00000000E+00  0.00000000E+00
  0.00000000E+00  0.00000000E+00  0.00000000E+00
  0.00000000E+00  0.00000000E+00  0.00000000E+00
  0.00000000E+00  0.00000000E+00  0.00000000E+00
  0.00000000E+00  0.00000000E+00  0.00000000E+00
  0.00000000E+00  0.00000000E+00  0.00000000E+00
  0.00000000E+00  0.00000000E+00  0.00000000E+00
  0.00000000E+00  0.00000000E+00  0.00000000E+00
  0.00000000E+00  0.00000000E+00  0.00000000E+00
  0.00000000E+00  0.00000000E+00  0.00000000E+00
  0.00000000E+00  0.00000000E+00  0.00000000E+00
  0.00000000E+00  0.00000000E+00  0.00000000E+00
  0.00000000E+00  0.00000000E+00  0.00000000E+00
  0.00000000E+00  0.00000000E+00  0.00000000E+00
  0.00000000E+00  0.00000000E+00  0.00000000E+00
  0.00000000E+00  0.00000000E+00  0.00000000E+00
  0.00000000E+00  0.00000000E+00  0.00000000E+00
  0.00000000E+00  0.00000000E+00  0.00000000E+00
  0.00000000E+00  0.00000000E+00  0.00000000E+00
  0.00000000E+00  0.00000000E+00  0.00000000E+00
  0.00000000E+00  0.00000000E+00  0.00000000E+00
  0.00000000E+00  0.00000000E+00  0.00000000E+00
  0.00000000E+00  0.00000000E+00  0.00000000E+00
  0.00000000E+00  0.00000000E+00  0.00000000E+00
  0.00000000E+00  0.00000000E+00  0.00000000E+00
