Hf2Pd1   [FCC,FCC,cF96] (STD_PRIM doi:10
   1.22474500000000     
    -0.0000000000000000    5.0668010083350064    5.0668010083350064
     5.0668010083350064    0.0000000000000000    5.0668010083350064
     5.0668010083350064    5.0668010083350064   -0.0000000000000000
  16   8
Direct
  0.0000000000000000  0.0000000000000000 -0.0000000000000000
  0.5000000000000000  0.0000000000000000 -0.0000000000000000
  0.5000000000000000 -0.0000000000000000  0.5000000000000000
  0.5000000000000000  0.5000000000000000  0.0000000000000000
  0.6892267509301824  0.1892267509301824  0.5607732490698176
  0.0607732490698176  0.5607732490698105  0.1892267509301895
  0.6892267509301824  0.5607732490698176  0.1892267509301824
  0.0607732490698176  0.1892267509301824  0.5607732490698176
  0.6892267509301824  0.5607732490698176  0.5607732490698176
  0.0607732490698176  0.1892267509301824  0.1892267509301824
  0.9392267509301824  0.8107732490698176  0.4392267509301824
  0.3107732490698247  0.4392267509301753  0.8107732490698176
  0.9392267509301824  0.4392267509301824  0.8107732490698176
  0.3107732490698176  0.8107732490698176  0.4392267509301824
  0.3107732490698176  0.4392267509301824  0.4392267509301824
  0.9392267509301824  0.8107732490698176  0.8107732490698176
  0.6522063504162693  0.7825978831945746  0.7825978831945746
  0.2825978831945745  0.7825978831945675  0.7825978831945888
  0.2825978831945745  0.7825978831945675  0.1522063504162764
  0.2825978831945745  0.1522063504162693  0.7825978831945746
  0.7174021168054254  0.2174021168054255  0.2174021168054255
  0.3477936495837449  0.2174021168054113  0.2174021168054255
  0.7174021168054325  0.2174021168054113  0.8477936495837236
  0.7174021168054254  0.8477936495837307  0.2174021168054255
 
  0.00000000E+00  0.00000000E+00  0.00000000E+00
  0.00000000E+00  0.00000000E+00  0.00000000E+00
  0.00000000E+00  0.00000000E+00  0.00000000E+00
  0.00000000E+00  0.00000000E+00  0.00000000E+00
  0.00000000E+00  0.00000000E+00  0.00000000E+00
  0.00000000E+00  0.00000000E+00  0.00000000E+00
  0.00000000E+00  0.00000000E+00  0.00000000E+00
  0.00000000E+00  0.00000000E+00  0.00000000E+00
  0.00000000E+00  0.00000000E+00  0.00000000E+00
  0.00000000E+00  0.00000000E+00  0.00000000E+00
  0.00000000E+00  0.00000000E+00  0.00000000E+00
  0.00000000E+00  0.00000000E+00  0.00000000E+00
  0.00000000E+00  0.00000000E+00  0.00000000E+00
  0.00000000E+00  0.00000000E+00  0.00000000E+00
  0.00000000E+00  0.00000000E+00  0.00000000E+00
  0.00000000E+00  0.00000000E+00  0.00000000E+00
  0.00000000E+00  0.00000000E+00  0.00000000E+00
  0.00000000E+00  0.00000000E+00  0.00000000E+00
  0.00000000E+00  0.00000000E+00  0.00000000E+00
  0.00000000E+00  0.00000000E+00  0.00000000E+00
  0.00000000E+00  0.00000000E+00  0.00000000E+00
  0.00000000E+00  0.00000000E+00  0.00000000E+00
  0.00000000E+00  0.00000000E+00  0.00000000E+00
  0.00000000E+00  0.00000000E+00  0.00000000E+00
