Fe1P1Zr1   [ORC,ORC,oP12] (STD_PRIM doi:
   1.00000000000000     
     3.6311838708634991    0.0000000000000000    0.0000000000000000
     0.0000000000000000    6.4510468768844493    0.0000000000000000
     0.0000000000000000    0.0000000000000000    8.0073527562950098
   4   4   4
Direct
  0.2500000000000000  0.1279668522545803  0.4480412589146969
  0.7500000000000000  0.3720331477454198  0.9480412589146969
  0.7500000000000000  0.8720331477454197  0.5519587410853031
  0.2500000000000000  0.6279668522545803  0.0519587410853031
  0.2500000000000000  0.7556605839613081  0.3583174502749376
  0.7500000000000000  0.7443394160386919  0.8583174502749377
  0.7500000000000000  0.2443394160386920  0.6416825497250623
  0.2500000000000000  0.2556605839613080  0.1416825497250624
  0.2500000000000000  0.0505691841642181  0.8355587155660226
  0.7500000000000000  0.4494308158357819  0.3355587155660225
  0.7500000000000000  0.9494308158357818  0.1644412844339774
  0.2500000000000000  0.5505691841642182  0.6644412844339774
 
  0.00000000E+00  0.00000000E+00  0.00000000E+00
  0.00000000E+00  0.00000000E+00  0.00000000E+00
  0.00000000E+00  0.00000000E+00  0.00000000E+00
  0.00000000E+00  0.00000000E+00  0.00000000E+00
  0.00000000E+00  0.00000000E+00  0.00000000E+00
  0.00000000E+00  0.00000000E+00  0.00000000E+00
  0.00000000E+00  0.00000000E+00  0.00000000E+00
  0.00000000E+00  0.00000000E+00  0.00000000E+00
  0.00000000E+00  0.00000000E+00  0.00000000E+00
  0.00000000E+00  0.00000000E+00  0.00000000E+00
  0.00000000E+00  0.00000000E+00  0.00000000E+00
  0.00000000E+00  0.00000000E+00  0.00000000E+00
