La1Os1Si3   [BCT,BCT2,tI10] (STD_PRIM do
   1.00000000000000     
    -2.1541062029000577    2.1541062029000577    5.0018130506771978
     2.1541062029000577   -2.1541062029000577    5.0018130506771978
     2.1541062029000577    2.1541062029000577   -5.0018130506771978
   1   1   3
Direct
  0.0000973721162327  0.0000973721162327  0.0000000000000000
  0.3444077714049494  0.3444077714049494 -0.0000000000000000
  0.5815937877742051  0.5815937877742051  0.0000000000000000
  0.7399505343523094  0.2399505343523093  0.5000000000000000
  0.2399505343523093  0.7399505343523094  0.5000000000000000
 
  0.00000000E+00  0.00000000E+00  0.00000000E+00
  0.00000000E+00  0.00000000E+00  0.00000000E+00
  0.00000000E+00  0.00000000E+00  0.00000000E+00
  0.00000000E+00  0.00000000E+00  0.00000000E+00
  0.00000000E+00  0.00000000E+00  0.00000000E+00
