As1In1   [CUB,CUB,cP16] (STD_PRIM doi:10
   1.00000000000000     
     7.5265705352133194    0.0000000000000000   -0.0000000000000000
    -0.0000000000000000    7.5265705352133194    0.0000000000000000
    -0.0000000000000000    0.0000000000000000    7.5265705352133194
   8   8
Direct
  0.1372808608617983  0.1372808608617983  0.1372808608617983
  0.3627191391382017  0.8627191391382016  0.6372808608617984
  0.8627191391382016  0.6372808608617984  0.3627191391382017
  0.6372808608617984  0.3627191391382017  0.8627191391382016
  0.8627191391382016  0.8627191391382016  0.8627191391382016
  0.6372808608617984  0.1372808608617983  0.3627191391382017
  0.1372808608617983  0.3627191391382017  0.6372808608617984
  0.3627191391382017  0.6372808608617984  0.1372808608617983
  0.3400118301246550  0.3400118301246550  0.3400118301246550
  0.1599881698753450  0.6599881698753521  0.8400118301246479
  0.6599881698753521  0.8400118301246479  0.1599881698753450
  0.8400118301246479  0.1599881698753450  0.6599881698753521
  0.6599881698753521  0.6599881698753521  0.6599881698753521
  0.8400118301246479  0.3400118301246550  0.1599881698753450
  0.3400118301246550  0.1599881698753450  0.8400118301246479
  0.1599881698753450  0.8400118301246479  0.3400118301246550
 
  0.00000000E+00  0.00000000E+00  0.00000000E+00
  0.00000000E+00  0.00000000E+00  0.00000000E+00
  0.00000000E+00  0.00000000E+00  0.00000000E+00
  0.00000000E+00  0.00000000E+00  0.00000000E+00
  0.00000000E+00  0.00000000E+00  0.00000000E+00
  0.00000000E+00  0.00000000E+00  0.00000000E+00
  0.00000000E+00  0.00000000E+00  0.00000000E+00
  0.00000000E+00  0.00000000E+00  0.00000000E+00
  0.00000000E+00  0.00000000E+00  0.00000000E+00
  0.00000000E+00  0.00000000E+00  0.00000000E+00
  0.00000000E+00  0.00000000E+00  0.00000000E+00
  0.00000000E+00  0.00000000E+00  0.00000000E+00
  0.00000000E+00  0.00000000E+00  0.00000000E+00
  0.00000000E+00  0.00000000E+00  0.00000000E+00
  0.00000000E+00  0.00000000E+00  0.00000000E+00
  0.00000000E+00  0.00000000E+00  0.00000000E+00
