Ba1Bi1O3   [FCC,FCC,cF40] (STD_PRIM doi:
   1.22474500000000     
    -0.0000000000000000    3.6090005867410184    3.6090005867410184
     3.6090005867410184    0.0000000000000000    3.6090005867410184
     3.6090005867410184    3.6090005867410184    0.0000000000000000
   2   2   6
Direct
  0.2500000000000000  0.2500000000000000  0.2500000000000000
  0.7500000000000000  0.7500000000000000  0.7500000000000000
 -0.0000000000000000 -0.0000000000000000  0.0000000000000000
  0.5000000000000000  0.5000000000000000  0.5000000000000000
  0.7461042564217942  0.2538957435782057  0.2538957435782057
  0.2538957435782057  0.7461042564217942  0.7461042564217942
  0.7461042564217942  0.2538957435782057  0.7461042564217942
  0.2538957435782057  0.7461042564217942  0.2538957435782057
  0.7461042564217942  0.7461042564217942  0.2538957435782057
  0.2538957435782057  0.2538957435782057  0.7461042564217942
 
  0.00000000E+00  0.00000000E+00  0.00000000E+00
  0.00000000E+00  0.00000000E+00  0.00000000E+00
  0.00000000E+00  0.00000000E+00  0.00000000E+00
  0.00000000E+00  0.00000000E+00  0.00000000E+00
  0.00000000E+00  0.00000000E+00  0.00000000E+00
  0.00000000E+00  0.00000000E+00  0.00000000E+00
  0.00000000E+00  0.00000000E+00  0.00000000E+00
  0.00000000E+00  0.00000000E+00  0.00000000E+00
  0.00000000E+00  0.00000000E+00  0.00000000E+00
  0.00000000E+00  0.00000000E+00  0.00000000E+00
