Ba1Sn1Zn1   [HEX,HEX,hP6] (STD_PRIM doi:
   1.00000000000000     
     2.3859509239341681   -4.1325882246198873    0.0000000000000000
     2.3858620433538444    4.1325369093929121    0.0000000000000000
    -0.0000000000000000    0.0000000000000000    9.9233244952211166
   2   2   2
Direct
 -0.0000000000000000  0.0000000000000000  0.0000000000000000
  0.0000000000000000 -0.0000000000000000  0.5000000000000000
  0.6666788019525690  0.3333576039051379  0.2500000000000000
  0.3333211980474310  0.6666423960948621  0.7500000000000000
  0.6666813347637390  0.3333626695274709  0.7500000000000000
  0.3333186652362610  0.6666373304725292  0.2500000000000000
 
  0.00000000E+00  0.00000000E+00  0.00000000E+00
  0.00000000E+00  0.00000000E+00  0.00000000E+00
  0.00000000E+00  0.00000000E+00  0.00000000E+00
  0.00000000E+00  0.00000000E+00  0.00000000E+00
  0.00000000E+00  0.00000000E+00  0.00000000E+00
  0.00000000E+00  0.00000000E+00  0.00000000E+00
