Ba5Sn3   [BCT,BCT2,tI32] (STD_PRIM doi:1
   1.00000000000000     
    -4.5406392425837012    4.5406392425837012    8.6952197916302261
     4.5406392425837012   -4.5406392425837012    8.6952197916302261
     4.5406392425837012    4.5406392425837012   -8.6952197916302261
  10   6
Direct
  0.8214346992541692  0.3214346992541692  0.8572592764897138
  0.4641754227644554  0.9641754227644554  0.1427407235102862
  0.3214346992541692  0.4641754227644554  0.5000000000000000
  0.9641754227644554  0.8214346992541692  0.5000000000000000
  0.0358245772355446  0.1785653007458308  0.5000000000000000
  0.6785653007458308  0.5358245772355446  0.5000000000000000
  0.5358245772355446  0.0358245772355446  0.8572592764897138
  0.1785653007458308  0.6785653007458308  0.1427407235102862
  0.0000000000000000  0.0000000000000000  0.0000000000000000
  0.5000000000000000  0.5000000000000000  0.0000000000000000
  0.8835494232478922  0.3835494232478922  0.2670988464957773
  0.1164505767521078  0.6164505767521078  0.7329011535042227
  0.3835494232478922  0.1164505767521078  0.5000000000000000
  0.6164505767521078  0.8835494232478922  0.5000000000000000
  0.2500000000000000  0.2500000000000000  0.0000000000000000
  0.7500000000000000  0.7500000000000000  0.0000000000000000
 
  0.00000000E+00  0.00000000E+00  0.00000000E+00
  0.00000000E+00  0.00000000E+00  0.00000000E+00
  0.00000000E+00  0.00000000E+00  0.00000000E+00
  0.00000000E+00  0.00000000E+00  0.00000000E+00
  0.00000000E+00  0.00000000E+00  0.00000000E+00
  0.00000000E+00  0.00000000E+00  0.00000000E+00
  0.00000000E+00  0.00000000E+00  0.00000000E+00
  0.00000000E+00  0.00000000E+00  0.00000000E+00
  0.00000000E+00  0.00000000E+00  0.00000000E+00
  0.00000000E+00  0.00000000E+00  0.00000000E+00
  0.00000000E+00  0.00000000E+00  0.00000000E+00
  0.00000000E+00  0.00000000E+00  0.00000000E+00
  0.00000000E+00  0.00000000E+00  0.00000000E+00
  0.00000000E+00  0.00000000E+00  0.00000000E+00
  0.00000000E+00  0.00000000E+00  0.00000000E+00
  0.00000000E+00  0.00000000E+00  0.00000000E+00
