Li1Nb1S2   [HEX,HEX,hP8] (STD_PRIM doi:1
   1.00000000000000     
     1.6910536743109392   -2.9289908822325743    0.0000000000000000
     1.6910776522245161    2.9290047258874328    0.0000000000000000
     0.0000000000000000    0.0000000000000000   12.9503653176925386
   2   2   4
Direct
  0.0000000000000000  0.0000000000000000  0.0000000000000000
  0.0000000000000000  0.0000000000000000  0.5000000000000000
  0.0000212506668902  0.0000425013337733  0.2500000000000000
  0.9999787493331098  0.9999574986662267  0.7500000000000000
  0.6666847330695589  0.3333694661391107  0.1277346674819029
  0.3333152669304411  0.6666305338608893  0.6277346674819029
  0.3333152669304411  0.6666305338608893  0.8722653325180971
  0.6666847330695589  0.3333694661391107  0.3722653325180971
 
  0.00000000E+00  0.00000000E+00  0.00000000E+00
  0.00000000E+00  0.00000000E+00  0.00000000E+00
  0.00000000E+00  0.00000000E+00  0.00000000E+00
  0.00000000E+00  0.00000000E+00  0.00000000E+00
  0.00000000E+00  0.00000000E+00  0.00000000E+00
  0.00000000E+00  0.00000000E+00  0.00000000E+00
  0.00000000E+00  0.00000000E+00  0.00000000E+00
  0.00000000E+00  0.00000000E+00  0.00000000E+00
