Ni1Pd1Si1 #189 - (Ni1Pd1Si1_ICSD_646219)
    1.000000000000000     
     3.0665952721522260   -5.3115161382447456    0.0000000000000000
     3.0665952721522260    5.3115161382447456    0.0000000000000000
     0.0000000000000000    0.0000000000000000    3.4615996354839149
   3   3   3
Direct
  0.2533859300161710  0.9999986218485545  0.0000000000000000
  0.9999986218485545  0.2533859300161710  0.0000000000000000
  0.7466155619322465  0.7466155619322465  0.0000000000000000
  0.5992339873676704  0.9999982218966186  0.5000000000000000
  0.9999982218966186  0.5992339873676704  0.5000000000000000
  0.4007666813796905  0.4007666813796905  0.5000000000000000
  0.3333339022302909  0.6666659424069374  0.0000000000000000
  0.6666659424069374  0.3333339022302909  0.0000000000000000
  0.0000011509218202  0.0000011509218202  0.5000000000000000
 
  0.00000000E+00  0.00000000E+00  0.00000000E+00
  0.00000000E+00  0.00000000E+00  0.00000000E+00
  0.00000000E+00  0.00000000E+00  0.00000000E+00
  0.00000000E+00  0.00000000E+00  0.00000000E+00
  0.00000000E+00  0.00000000E+00  0.00000000E+00
  0.00000000E+00  0.00000000E+00  0.00000000E+00
  0.00000000E+00  0.00000000E+00  0.00000000E+00
  0.00000000E+00  0.00000000E+00  0.00000000E+00
  0.00000000E+00  0.00000000E+00  0.00000000E+00
