Pt8Sc4Si4 #63 - (Pt8Sc4Si4_ICSD_420355) 
    1.000000000000000     
     1.8462956354973321   -5.0071568488725431    0.0000000000000000
     1.8462956354973321    5.0071568488725431    0.0000000000000000
     0.0000000000000000    0.0000000000000000    7.0099250134700073
   4   2   2
Direct
  0.6388809431807128  0.3611190568192872  0.9515094499700558
  0.3611190568192872  0.6388809431807128  0.4515094499700559
  0.6388809431807128  0.3611190568192872  0.5484905500299442
  0.3611190568192872  0.6388809431807128  0.0484905500299442
  0.9530007463814764  0.0469992536185236  0.7500000000000000
  0.0469992536185236  0.9530007463814764  0.2500000000000000
  0.2333604258832110  0.7666395741167890  0.7500000000000000
  0.7666395741167890  0.2333604258832110  0.2500000000000000
 
  0.00000000E+00  0.00000000E+00  0.00000000E+00
  0.00000000E+00  0.00000000E+00  0.00000000E+00
  0.00000000E+00  0.00000000E+00  0.00000000E+00
  0.00000000E+00  0.00000000E+00  0.00000000E+00
  0.00000000E+00  0.00000000E+00  0.00000000E+00
  0.00000000E+00  0.00000000E+00  0.00000000E+00
  0.00000000E+00  0.00000000E+00  0.00000000E+00
  0.00000000E+00  0.00000000E+00  0.00000000E+00
