B6Gd1 #221 - (B6Gd1_ICSD_602750) - B6Gd1
   1.00000000000000     
     4.1080947440971345   -0.0000000000000000    0.0000000000000000
    -0.0000000000000000    4.1080947440971345    0.0000000000000000
    -0.0000000000000000   -0.0000000000000000    4.1080947440971345
   6   1
Direct
  0.5000000000000000  0.5000000000000000  0.1990043619876534
  0.5000000000000000  0.5000000000000000  0.8009956380123466
  0.1990043619876534  0.5000000000000000  0.5000000000000000
  0.8009956380123466  0.5000000000000000  0.5000000000000000
  0.5000000000000000  0.1990043619876534  0.5000000000000000
  0.5000000000000000  0.8009956380123466  0.5000000000000000
  0.0000000000000000  0.0000000000000000  0.0000000000000000
 
  0.00000000E+00  0.00000000E+00  0.00000000E+00
  0.00000000E+00  0.00000000E+00  0.00000000E+00
  0.00000000E+00  0.00000000E+00  0.00000000E+00
  0.00000000E+00  0.00000000E+00  0.00000000E+00
  0.00000000E+00  0.00000000E+00  0.00000000E+00
  0.00000000E+00  0.00000000E+00  0.00000000E+00
  0.00000000E+00  0.00000000E+00  0.00000000E+00
