Er1Rh1Sn1   [HEX,HEX,hP9] (STD_PRIM doi:
   1.00000000000000     
     3.8143904456134945   -6.6067180517078663    0.0000000000000000
     3.8144762822910412    6.6067676095367531    0.0000000000000000
     0.0000000000000000    0.0000000000000000    3.7385685542928946
   3   3   3
Direct
  0.0000025866426085  0.4039353307006124  0.0000000000000000
  0.5960672559419962  0.5960646692993876  0.0000000000000000
  0.4039338067355516  0.0000000000000000  0.0000000000000000
  0.3333232116260021  0.6666468731463624  0.5000000000000000
  0.6666763384796468  0.3333531268536376  0.5000000000000000
  0.9999956310436531  0.0000000000000000  0.0000000000000000
  0.0000089458215697  0.7344803811338778  0.5000000000000000
  0.2655285646876919  0.2655196188661222  0.5000000000000000
  0.7344636590212801  0.0000000000000000  0.5000000000000000
 
  0.00000000E+00  0.00000000E+00  0.00000000E+00
  0.00000000E+00  0.00000000E+00  0.00000000E+00
  0.00000000E+00  0.00000000E+00  0.00000000E+00
  0.00000000E+00  0.00000000E+00  0.00000000E+00
  0.00000000E+00  0.00000000E+00  0.00000000E+00
  0.00000000E+00  0.00000000E+00  0.00000000E+00
  0.00000000E+00  0.00000000E+00  0.00000000E+00
  0.00000000E+00  0.00000000E+00  0.00000000E+00
  0.00000000E+00  0.00000000E+00  0.00000000E+00
