Cu7Hf6Zn16   [FCC,FCC,cF116] (STD_PRIM d
   1.22474500000000     
     0.0000000000000000    4.8987869160819804    4.8987869160819804
     4.8987869160819804   -0.0000000000000000    4.8987869160819804
     4.8987869160819804    4.8987869160819804    0.0000000000000000
   7   6  16
Direct
  0.0000000000000000  0.0000000000000000  0.0000000000000000
  0.0000000000000000  0.5000000000000000  0.5000000000000000
  0.5000000000000000  0.0000000000000000 -0.0000000000000000
  0.5000000000000000  0.5000000000000000  0.0000000000000000
 -0.0000000000000000  0.0000000000000000  0.5000000000000000
 -0.0000000000000000  0.5000000000000000  0.0000000000000000
  0.5000000000000000  0.0000000000000000  0.5000000000000000
  0.6876753233412971  0.3123246766587029  0.3123246766587029
  0.3123246766587029  0.6876753233412971  0.6876753233412971
  0.3123246766587029  0.3123246766587029  0.6876753233412971
  0.6876753233412971  0.6876753233412971  0.3123246766587029
  0.6876753233412971  0.3123246766587029  0.6876753233412971
  0.3123246766587029  0.6876753233412971  0.3123246766587029
  0.8810142824643623  0.3569571526069133  0.8810142824643623
  0.8810142824643623  0.8810142824643623  0.8810142824643623
  0.3569571526069133  0.8810142824643623  0.8810142824643623
  0.8810142824643623  0.8810142824643623  0.3569571526069133
  0.1189857175356377  0.1189857175356377  0.1189857175356377
  0.1189857175356377  0.6430428473930868  0.1189857175356377
  0.6430428473930868  0.1189857175356377  0.1189857175356377
  0.1189857175356377  0.1189857175356377  0.6430428473930868
  0.6678313706954330  0.9965058879136868  0.6678313706954330
  0.6678313706954330  0.6678313706954330  0.6678313706954330
  0.9965058879136868  0.6678313706954330  0.6678313706954330
  0.6678313706954330  0.6678313706954330  0.9965058879136868
  0.3321686293045670  0.3321686293045670  0.3321686293045670
  0.3321686293045670  0.0034941120863132  0.3321686293045670
  0.0034941120863132  0.3321686293045670  0.3321686293045670
  0.3321686293045670  0.3321686293045670  0.0034941120863132
 
  0.00000000E+00  0.00000000E+00  0.00000000E+00
  0.00000000E+00  0.00000000E+00  0.00000000E+00
  0.00000000E+00  0.00000000E+00  0.00000000E+00
  0.00000000E+00  0.00000000E+00  0.00000000E+00
  0.00000000E+00  0.00000000E+00  0.00000000E+00
  0.00000000E+00  0.00000000E+00  0.00000000E+00
  0.00000000E+00  0.00000000E+00  0.00000000E+00
  0.00000000E+00  0.00000000E+00  0.00000000E+00
  0.00000000E+00  0.00000000E+00  0.00000000E+00
  0.00000000E+00  0.00000000E+00  0.00000000E+00
  0.00000000E+00  0.00000000E+00  0.00000000E+00
  0.00000000E+00  0.00000000E+00  0.00000000E+00
  0.00000000E+00  0.00000000E+00  0.00000000E+00
  0.00000000E+00  0.00000000E+00  0.00000000E+00
  0.00000000E+00  0.00000000E+00  0.00000000E+00
  0.00000000E+00  0.00000000E+00  0.00000000E+00
  0.00000000E+00  0.00000000E+00  0.00000000E+00
  0.00000000E+00  0.00000000E+00  0.00000000E+00
  0.00000000E+00  0.00000000E+00  0.00000000E+00
  0.00000000E+00  0.00000000E+00  0.00000000E+00
  0.00000000E+00  0.00000000E+00  0.00000000E+00
  0.00000000E+00  0.00000000E+00  0.00000000E+00
  0.00000000E+00  0.00000000E+00  0.00000000E+00
  0.00000000E+00  0.00000000E+00  0.00000000E+00
  0.00000000E+00  0.00000000E+00  0.00000000E+00
  0.00000000E+00  0.00000000E+00  0.00000000E+00
  0.00000000E+00  0.00000000E+00  0.00000000E+00
  0.00000000E+00  0.00000000E+00  0.00000000E+00
  0.00000000E+00  0.00000000E+00  0.00000000E+00
