Ir1Nb1   [ORC,ORC,oP12] (STD_PRIM doi:10
   1.00000000000000     
     2.8724435512218371    0.0000000000000000    0.0000000000000000
     0.0000000000000000    4.8551493670105392    0.0000000000000000
     0.0000000000000000    0.0000000000000000   13.8009248535945481
   6   6
Direct
  0.5000000000000000  0.4610684013157582  0.2500000000000000
  0.5000000000000000  0.5389315986842417  0.7500000000000000
  0.5000000000000000  0.1756242328073958  0.9174890690194420
  0.5000000000000000  0.1756242328073958  0.5825109309805580
  0.5000000000000000  0.8243757671926042  0.0825109309805580
  0.5000000000000000  0.8243757671926042  0.4174890690194419
  0.0000000000000000  0.9502886792351927  0.2500000000000000
  0.0000000000000000  0.0497113207648073  0.7500000000000000
 -0.0000000000000000  0.6737586915987644  0.9151364679286822
  0.0000000000000000  0.6737586915987644  0.5848635320713178
  0.0000000000000000  0.3262413084012356  0.0848635320713179
  0.0000000000000000  0.3262413084012356  0.4151364679286821
 
  0.00000000E+00  0.00000000E+00  0.00000000E+00
  0.00000000E+00  0.00000000E+00  0.00000000E+00
  0.00000000E+00  0.00000000E+00  0.00000000E+00
  0.00000000E+00  0.00000000E+00  0.00000000E+00
  0.00000000E+00  0.00000000E+00  0.00000000E+00
  0.00000000E+00  0.00000000E+00  0.00000000E+00
  0.00000000E+00  0.00000000E+00  0.00000000E+00
  0.00000000E+00  0.00000000E+00  0.00000000E+00
  0.00000000E+00  0.00000000E+00  0.00000000E+00
  0.00000000E+00  0.00000000E+00  0.00000000E+00
  0.00000000E+00  0.00000000E+00  0.00000000E+00
  0.00000000E+00  0.00000000E+00  0.00000000E+00
