Li1P1Sr1   [HEX,HEX,hP3] (STD_PRIM doi:1
   1.00000000000000     
     2.1506983312504109   -3.7251187814793147    0.0000000000000000
     2.1506290764420171    3.7250787971970456    0.0000000000000000
     0.0000000000000000    0.0000000000000000    4.2608709993870182
   1   1   1
Direct
  0.6666827628375387  0.3333655256750774  0.5000000000000000
  0.3333183766445700  0.6666367532891329  0.5000000000000000
  0.9999988605178913  0.9999977210357827  0.0000000000000000
 
  0.00000000E+00  0.00000000E+00  0.00000000E+00
  0.00000000E+00  0.00000000E+00  0.00000000E+00
  0.00000000E+00  0.00000000E+00  0.00000000E+00
