O6Os2Rb1 #216 - (O6Os2Rb1_ICSD_161127) -
   1.22474500000000     
     0.0000000000000000    4.1957470257508174    4.1957470257508174
     4.1957470257508174    0.0000000000000000    4.1957470257508174
     4.1957470257508174    4.1957470257508174    0.0000000000000000
  12   4   2
Direct
  0.8074119022964501  0.1925880977035499  0.1925880977035499
  0.1925880977035499  0.8074119022964501  0.8074119022964501
  0.1925880977035499  0.8074119022964501  0.1925880977035499
  0.8074119022964501  0.1925880977035499  0.8074119022964501
  0.1925880977035499  0.1925880977035499  0.8074119022964501
  0.8074119022964501  0.8074119022964501  0.1925880977035499
  0.9425360338418185  0.5574639661581815  0.5574639661581815
  0.5574639661581815  0.9425360338418185  0.9425360338418185
  0.5574639661581815  0.9425360338418185  0.5574639661581815
  0.9425360338418185  0.5574639661581815  0.9425360338418185
  0.5574639661581815  0.5574639661581815  0.9425360338418185
  0.9425360338418185  0.9425360338418185  0.5574639661581815
  0.8750021376970279  0.8750021376970279  0.8750021376970279
  0.8750021376970279  0.8750021376970279  0.3749935869089234
  0.8750021376970279  0.3749935869089234  0.8750021376970279
  0.3749935869089234  0.8750021376970279  0.8750021376970279
  0.2500000000000000  0.2500000000000000  0.2500000000000000
  0.5000000000000000  0.5000000000000000  0.5000000000000000
 
  0.00000000E+00  0.00000000E+00  0.00000000E+00
  0.00000000E+00  0.00000000E+00  0.00000000E+00
  0.00000000E+00  0.00000000E+00  0.00000000E+00
  0.00000000E+00  0.00000000E+00  0.00000000E+00
  0.00000000E+00  0.00000000E+00  0.00000000E+00
  0.00000000E+00  0.00000000E+00  0.00000000E+00
  0.00000000E+00  0.00000000E+00  0.00000000E+00
  0.00000000E+00  0.00000000E+00  0.00000000E+00
  0.00000000E+00  0.00000000E+00  0.00000000E+00
  0.00000000E+00  0.00000000E+00  0.00000000E+00
  0.00000000E+00  0.00000000E+00  0.00000000E+00
  0.00000000E+00  0.00000000E+00  0.00000000E+00
  0.00000000E+00  0.00000000E+00  0.00000000E+00
  0.00000000E+00  0.00000000E+00  0.00000000E+00
  0.00000000E+00  0.00000000E+00  0.00000000E+00
  0.00000000E+00  0.00000000E+00  0.00000000E+00
  0.00000000E+00  0.00000000E+00  0.00000000E+00
  0.00000000E+00  0.00000000E+00  0.00000000E+00
