Pd1Sn3Sr1   [BCT,BCT2,tI10] (STD_PRIM do
   1.00000000000000     
    -2.4528295783549288    2.4528295783549288    5.7668959849686203
     2.4528295783549288   -2.4528295783549288    5.7668959849686203
     2.4528295783549288    2.4528295783549288   -5.7668959849686203
   1   3   1
Direct
  0.6412852196893457  0.6412852196893457 -0.0000000000000000
  0.4118776535443475  0.4118776535443475 -0.0000000000000000
  0.7446575548772844  0.2446575548772844  0.5000000000000000
  0.2446575548772844  0.7446575548772844  0.5000000000000000
  0.9985220170117348  0.9985220170117348  0.0000000000000000
 
  0.00000000E+00  0.00000000E+00  0.00000000E+00
  0.00000000E+00  0.00000000E+00  0.00000000E+00
  0.00000000E+00  0.00000000E+00  0.00000000E+00
  0.00000000E+00  0.00000000E+00  0.00000000E+00
  0.00000000E+00  0.00000000E+00  0.00000000E+00
