In2Mn1S4   [FCC,FCC,cF56] (STD_PRIM doi:
   1.22474500000000     
     0.0000000000000000    4.4300574791393865    4.4300574791393865
     4.4300574791393865    0.0000000000000000    4.4300574791393865
     4.4300574791393865    4.4300574791393865   -0.0000000000000000
   4   2   8
Direct
  0.1250000000000000  0.6250000000000000  0.6250000000000000
  0.6250000000000000  0.6250000000000000  0.6250000000000000
  0.6250000000000000  0.1250000000000000  0.6250000000000000
  0.6250000000000000  0.6250000000000000  0.1250000000000000
  0.0000000000000000  0.0000000000000000  0.0000000000000000
  0.2500000000000000  0.2500000000000000  0.2500000000000000
  0.8533066203145080  0.3822311265618331  0.3822311265618331
  0.3822311265618331  0.3822311265618331  0.3822311265618331
  0.3822311265618331  0.8533066203145080  0.3822311265618331
  0.3822311265618331  0.3822311265618331  0.8533066203145080
  0.8677688734381670  0.8677688734381670  0.8677688734381670
  0.3966933796854920  0.8677688734381670  0.8677688734381670
  0.8677688734381670  0.3966933796854920  0.8677688734381670
  0.8677688734381670  0.8677688734381670  0.3966933796854920
 
  0.00000000E+00  0.00000000E+00  0.00000000E+00
  0.00000000E+00  0.00000000E+00  0.00000000E+00
  0.00000000E+00  0.00000000E+00  0.00000000E+00
  0.00000000E+00  0.00000000E+00  0.00000000E+00
  0.00000000E+00  0.00000000E+00  0.00000000E+00
  0.00000000E+00  0.00000000E+00  0.00000000E+00
  0.00000000E+00  0.00000000E+00  0.00000000E+00
  0.00000000E+00  0.00000000E+00  0.00000000E+00
  0.00000000E+00  0.00000000E+00  0.00000000E+00
  0.00000000E+00  0.00000000E+00  0.00000000E+00
  0.00000000E+00  0.00000000E+00  0.00000000E+00
  0.00000000E+00  0.00000000E+00  0.00000000E+00
  0.00000000E+00  0.00000000E+00  0.00000000E+00
  0.00000000E+00  0.00000000E+00  0.00000000E+00
