Cu2Te2Tl1 #139 - (Cu2Te2Tl1_ICSD_601653)
   1.00000000000000     
    -2.0085325067571782    2.0085325067571782    7.8124955129429825
     2.0085325067571782   -2.0085325067571782    7.8124955129429825
     2.0085325067571782    2.0085325067571782   -7.8124955129429825
   2   2   1
Direct
  0.2500000000000000  0.7500000000000000  0.5000000000000000
  0.7500000000000000  0.2500000000000000  0.5000000000000000
  0.3600354955249708  0.3600354955249708  0.0000000000000000
  0.6399645044750292  0.6399645044750292  0.0000000000000000
 -0.0000000000000000  0.0000000000000000 -0.0000000000000000
 
  0.00000000E+00  0.00000000E+00  0.00000000E+00
  0.00000000E+00  0.00000000E+00  0.00000000E+00
  0.00000000E+00  0.00000000E+00  0.00000000E+00
  0.00000000E+00  0.00000000E+00  0.00000000E+00
  0.00000000E+00  0.00000000E+00  0.00000000E+00
