P1Sn3Zr5   [HEX,HEX,hP18] (STD_PRIM doi:
   1.00000000000000     
     4.3301215665998880   -7.4999884845835103    0.0000000000000000
     4.3301215665998880    7.4999884845835103    0.0000000000000000
     0.0000000000000000    0.0000000000000000    5.9972574828209559
   2   6  10
Direct
 -0.0000000000000000 -0.0000000000000000 -0.0000000000000000
  0.0000000000000000  0.0000000000000000  0.5000000000000000
  0.6003137256776436  0.0000012838665804  0.2500000000000000
  0.0000012838665804  0.6003137256776436  0.2500000000000000
  0.3996887496144914  0.3996887496144914  0.2500000000000000
  0.3996862743223564  0.9999987161334196  0.7500000000000000
  0.9999987161334196  0.3996862743223564  0.7500000000000000
  0.6003112503855087  0.6003112503855087  0.7500000000000000
  0.3333334411533994  0.6666665588466006  0.0000000000000000
  0.6666665588466006  0.3333334411533994  0.5000000000000000
  0.6666665588466006  0.3333334411533994 -0.0000000000000000
  0.3333334411533994  0.6666665588466006  0.5000000000000000
  0.2484640763944555  0.0000023758857677  0.2500000000000000
  0.0000023758857677  0.2484640763944555  0.2500000000000000
  0.7515384458154635  0.7515384458154635  0.2500000000000000
  0.7515359236055444  0.9999976241142323  0.7500000000000000
  0.9999976241142323  0.7515359236055444  0.7500000000000000
  0.2484615541845366  0.2484615541845366  0.7500000000000000
 
  0.00000000E+00  0.00000000E+00  0.00000000E+00
  0.00000000E+00  0.00000000E+00  0.00000000E+00
  0.00000000E+00  0.00000000E+00  0.00000000E+00
  0.00000000E+00  0.00000000E+00  0.00000000E+00
  0.00000000E+00  0.00000000E+00  0.00000000E+00
  0.00000000E+00  0.00000000E+00  0.00000000E+00
  0.00000000E+00  0.00000000E+00  0.00000000E+00
  0.00000000E+00  0.00000000E+00  0.00000000E+00
  0.00000000E+00  0.00000000E+00  0.00000000E+00
  0.00000000E+00  0.00000000E+00  0.00000000E+00
  0.00000000E+00  0.00000000E+00  0.00000000E+00
  0.00000000E+00  0.00000000E+00  0.00000000E+00
  0.00000000E+00  0.00000000E+00  0.00000000E+00
  0.00000000E+00  0.00000000E+00  0.00000000E+00
  0.00000000E+00  0.00000000E+00  0.00000000E+00
  0.00000000E+00  0.00000000E+00  0.00000000E+00
  0.00000000E+00  0.00000000E+00  0.00000000E+00
  0.00000000E+00  0.00000000E+00  0.00000000E+00
