Cl6Rb2Ti1   [FCC,FCC,cF36] (STD_PRIM doi
   1.22474500000000     
    -0.0000000000000000    4.1962965010680469    4.1962965010680469
     4.1962965010680469    0.0000000000000000    4.1962965010680469
     4.1962965010680469    4.1962965010680469    0.0000000000000000
   6   2   1
Direct
  0.7682767204650173  0.2317232795349827  0.2317232795349827
  0.2317232795349827  0.7682767204650173  0.7682767204650173
  0.7682767204650173  0.7682767204650173  0.2317232795349827
  0.2317232795349827  0.2317232795349827  0.7682767204650173
  0.2317232795349827  0.7682767204650173  0.2317232795349827
  0.7682767204650173  0.2317232795349827  0.7682767204650173
  0.7500000000000000  0.7500000000000000  0.7500000000000000
  0.2500000000000000  0.2500000000000000  0.2500000000000000
 -0.0000000000000000  0.0000000000000000  0.0000000000000000
 
  0.00000000E+00  0.00000000E+00  0.00000000E+00
  0.00000000E+00  0.00000000E+00  0.00000000E+00
  0.00000000E+00  0.00000000E+00  0.00000000E+00
  0.00000000E+00  0.00000000E+00  0.00000000E+00
  0.00000000E+00  0.00000000E+00  0.00000000E+00
  0.00000000E+00  0.00000000E+00  0.00000000E+00
  0.00000000E+00  0.00000000E+00  0.00000000E+00
  0.00000000E+00  0.00000000E+00  0.00000000E+00
  0.00000000E+00  0.00000000E+00  0.00000000E+00
