Ca2Nb2O7   [FCC,FCC,cF88] (STD_PRIM doi:
   1.22474500000000     
     0.0000000000000000    4.3019038877022844    4.3019038877022844
     4.3019038877022844    0.0000000000000000    4.3019038877022844
     4.3019038877022844    4.3019038877022844   -0.0000000000000000
   4   4  14
Direct
  0.3750000000000000  0.8750000000000000  0.3750000000000000
  0.3750000000000000  0.3750000000000000  0.8750000000000000
  0.3750000000000000  0.3750000000000000  0.3750000000000000
  0.8750000000000000  0.3750000000000000  0.3750000000000000
  0.8750000000000000  0.3750000000000000  0.8750000000000000
  0.8750000000000000  0.8750000000000000  0.3750000000000000
  0.8750000000000000  0.8750000000000000  0.8750000000000000
  0.3750000000000000  0.8750000000000000  0.8750000000000000
  0.5000000000000000  0.5000000000000000  0.5000000000000000
  0.2500000000000000  0.2500000000000000  0.2500000000000000
  0.1920791358265813  0.1920791358265813  0.8079208641734187
  0.8079208641734187  0.8079208641734187  0.1920791358265813
  0.8079208641734187  0.1920791358265813  0.8079208641734187
  0.1920791358265813  0.8079208641734187  0.1920791358265813
  0.8079208641734187  0.1920791358265813  0.1920791358265813
  0.1920791358265813  0.8079208641734187  0.8079208641734187
  0.5579208641734187  0.9420791358265813  0.5579208641734187
  0.9420791358265813  0.5579208641734187  0.9420791358265813
  0.9420791358265813  0.9420791358265813  0.5579208641734187
  0.5579208641734187  0.5579208641734187  0.9420791358265813
  0.9420791358265813  0.5579208641734187  0.5579208641734187
  0.5579208641734187  0.9420791358265813  0.9420791358265813
 
  0.00000000E+00  0.00000000E+00  0.00000000E+00
  0.00000000E+00  0.00000000E+00  0.00000000E+00
  0.00000000E+00  0.00000000E+00  0.00000000E+00
  0.00000000E+00  0.00000000E+00  0.00000000E+00
  0.00000000E+00  0.00000000E+00  0.00000000E+00
  0.00000000E+00  0.00000000E+00  0.00000000E+00
  0.00000000E+00  0.00000000E+00  0.00000000E+00
  0.00000000E+00  0.00000000E+00  0.00000000E+00
  0.00000000E+00  0.00000000E+00  0.00000000E+00
  0.00000000E+00  0.00000000E+00  0.00000000E+00
  0.00000000E+00  0.00000000E+00  0.00000000E+00
  0.00000000E+00  0.00000000E+00  0.00000000E+00
  0.00000000E+00  0.00000000E+00  0.00000000E+00
  0.00000000E+00  0.00000000E+00  0.00000000E+00
  0.00000000E+00  0.00000000E+00  0.00000000E+00
  0.00000000E+00  0.00000000E+00  0.00000000E+00
  0.00000000E+00  0.00000000E+00  0.00000000E+00
  0.00000000E+00  0.00000000E+00  0.00000000E+00
  0.00000000E+00  0.00000000E+00  0.00000000E+00
  0.00000000E+00  0.00000000E+00  0.00000000E+00
  0.00000000E+00  0.00000000E+00  0.00000000E+00
  0.00000000E+00  0.00000000E+00  0.00000000E+00
