Ni2O4Si1   [FCC,FCC,cF56] (STD_PRIM doi:
   1.22474500000000     
     0.0000000000000000    3.3140251432283323    3.3140251432283323
     3.3140251432283323    0.0000000000000000    3.3140251432283323
     3.3140251432283323    3.3140251432283323    0.0000000000000000
   4   8   2
Direct
  0.5000000000000000  0.5000000000000000  0.5000000000000000
  0.0000000000000000  0.5000000000000000  0.0000000000000000
  0.5000000000000000  0.5000000000000000  0.0000000000000000
  0.5000000000000000  0.0000000000000000  0.0000000000000000
  0.7561179541197092  0.7561179541197092  0.7316461376408867
  0.2316461376408796  0.7561179541197092  0.2561179541197092
  0.7561179541197092  0.7561179541197092  0.2561179541197092
  0.7561179541197092  0.2316461376408796  0.2561179541197092
  0.7683538623591133  0.2438820458802908  0.7438820458802908
  0.2438820458802908  0.2438820458802908  0.2683538623591133
  0.2438820458802908  0.2438820458802908  0.7438820458802908
  0.2438820458802908  0.7683538623591133  0.7438820458802908
  0.8750000000000000  0.8750000000000000  0.3750000000000000
  0.1250000000000000  0.1250000000000000  0.6250000000000000
 
  0.00000000E+00  0.00000000E+00  0.00000000E+00
  0.00000000E+00  0.00000000E+00  0.00000000E+00
  0.00000000E+00  0.00000000E+00  0.00000000E+00
  0.00000000E+00  0.00000000E+00  0.00000000E+00
  0.00000000E+00  0.00000000E+00  0.00000000E+00
  0.00000000E+00  0.00000000E+00  0.00000000E+00
  0.00000000E+00  0.00000000E+00  0.00000000E+00
  0.00000000E+00  0.00000000E+00  0.00000000E+00
  0.00000000E+00  0.00000000E+00  0.00000000E+00
  0.00000000E+00  0.00000000E+00  0.00000000E+00
  0.00000000E+00  0.00000000E+00  0.00000000E+00
  0.00000000E+00  0.00000000E+00  0.00000000E+00
  0.00000000E+00  0.00000000E+00  0.00000000E+00
  0.00000000E+00  0.00000000E+00  0.00000000E+00
