Ir1Ti1   [TET,TET,tP2] (STD_PRIM doi:10.
   1.00000000000000     
     2.9590711076472904    0.0000000000000000    0.0000000000000000
     0.0000000000000000    2.9590711076472904    0.0000000000000000
    -0.0000000000000000    0.0000000000000000    3.5207240332866916
   1   1
Direct
  0.0000000000000000  0.0000000000000000  0.0000000000000000
  0.5000000000000000  0.5000000000000000  0.5000000000000000
 
  0.00000000E+00  0.00000000E+00  0.00000000E+00
  0.00000000E+00  0.00000000E+00  0.00000000E+00
