Be5Hf1   [HEX,HEX,hP6] (STD_PRIM doi:10.
   1.00000000000000     
     2.2651586171189160   -3.9233698120524219    0.0000000000000000
     2.2653187797424246    3.9234622819862177    0.0000000000000000
     0.0000000000000000    0.0000000000000000    3.4383691702372832
   5   1
Direct
  0.6666808650391360  0.3333617300782721  0.0000000000000000
  0.3333191349608640  0.6666382699217279  0.0000000000000000
  0.0000000000000000  0.5000000000000000  0.5000000000000000
  0.5000000000000000  0.5000000000000000  0.5000000000000000
  0.5000000000000000  0.0000000000000000  0.5000000000000000
 -0.0000000000000000 -0.0000000000000000  0.0000000000000000
 
  0.00000000E+00  0.00000000E+00  0.00000000E+00
  0.00000000E+00  0.00000000E+00  0.00000000E+00
  0.00000000E+00  0.00000000E+00  0.00000000E+00
  0.00000000E+00  0.00000000E+00  0.00000000E+00
  0.00000000E+00  0.00000000E+00  0.00000000E+00
  0.00000000E+00  0.00000000E+00  0.00000000E+00
