Hg1Sn1Yb1   [HEX,HEX,hP6] (STD_PRIM doi:
   1.00000000000000     
     2.4678098135225524   -4.2743729079038815    0.0000000000000000
     2.4678098135225524    4.2743729079038815    0.0000000000000000
     0.0000000000000000    0.0000000000000000    7.8954660119795763
   2   2   2
Direct
  0.3333323041217868  0.6666676958782132  0.0607480804271271
  0.6666676958782132  0.3333323041217868  0.5607480804271272
  0.3333344722033683  0.6666655277966317  0.4606336011715384
  0.6666655277966317  0.3333344722033683  0.9606336011715385
  0.9999915156200547  0.0000084843799454  0.2486183184013304
  0.0000084843799454  0.9999915156200547  0.7486183184013305
 
  0.00000000E+00  0.00000000E+00  0.00000000E+00
  0.00000000E+00  0.00000000E+00  0.00000000E+00
  0.00000000E+00  0.00000000E+00  0.00000000E+00
  0.00000000E+00  0.00000000E+00  0.00000000E+00
  0.00000000E+00  0.00000000E+00  0.00000000E+00
  0.00000000E+00  0.00000000E+00  0.00000000E+00
