Cd1Cu1Dy1 #189 - (Cd1Cu1Dy1_ICSD_656598)
    1.000000000000000     
     3.7271648602548604   -6.4557265432504964    0.0000000000000000
     3.7271648602548604    6.4557265432504964    0.0000000000000000
     0.0000000000000000    0.0000000000000000    3.9532731610661167
   3   3   3
Direct
  0.2502701706389432  0.0000049328725301  0.0000000000000000
  0.0000049328725301  0.2502701706389432  0.0000000000000000
  0.7497337000738975  0.7497337000738975  0.0000000000000000
  0.3333334175751719  0.6666671396067130  0.0000000000000000
  0.6666671396067130  0.3333334175751719  0.0000000000000000
  0.9999864619523555  0.9999864619523555  0.5000000000000000
  0.5874518251529528  0.9999991997336227  0.5000000000000000
  0.9999991997336227  0.5874518251529528  0.5000000000000000
  0.4125531523938203  0.4125531523938203  0.5000000000000000
 
  0.00000000E+00  0.00000000E+00  0.00000000E+00
  0.00000000E+00  0.00000000E+00  0.00000000E+00
  0.00000000E+00  0.00000000E+00  0.00000000E+00
  0.00000000E+00  0.00000000E+00  0.00000000E+00
  0.00000000E+00  0.00000000E+00  0.00000000E+00
  0.00000000E+00  0.00000000E+00  0.00000000E+00
  0.00000000E+00  0.00000000E+00  0.00000000E+00
  0.00000000E+00  0.00000000E+00  0.00000000E+00
  0.00000000E+00  0.00000000E+00  0.00000000E+00
