Ca3Ga4Ni4   [BCC,BCC,cI22] (STD_PRIM doi
   1.00000000000000     
    -3.6815557496804447    3.6815557496804447    3.6815557496804447
     3.6815557496804447   -3.6815557496804447    3.6815557496804447
     3.6815557496804447    3.6815557496804447   -3.6815557496804447
   3   4   4
Direct
  0.5000000000000000  0.5000000000000000 -0.0000000000000000
  0.5000000000000000  0.0000000000000000  0.5000000000000000
  0.0000000000000000  0.5000000000000000  0.5000000000000000
  0.3873949008932713  0.0000000000000000 -0.0000000000000000
  0.6126050991067288  0.6126050991067288  0.6126050991067288
  0.0000000000000000  0.0000000000000000  0.3873949008932713
  0.0000000000000000  0.3873949008932713  0.0000000000000000
  0.7523681836485006  0.0000000000000000 -0.0000000000000000
  0.2476318163514996  0.2476318163514996  0.2476318163514996
  0.0000000000000000 -0.0000000000000000  0.7523681836485006
  0.0000000000000000  0.7523681836485006 -0.0000000000000000
 
  0.00000000E+00  0.00000000E+00  0.00000000E+00
  0.00000000E+00  0.00000000E+00  0.00000000E+00
  0.00000000E+00  0.00000000E+00  0.00000000E+00
  0.00000000E+00  0.00000000E+00  0.00000000E+00
  0.00000000E+00  0.00000000E+00  0.00000000E+00
  0.00000000E+00  0.00000000E+00  0.00000000E+00
  0.00000000E+00  0.00000000E+00  0.00000000E+00
  0.00000000E+00  0.00000000E+00  0.00000000E+00
  0.00000000E+00  0.00000000E+00  0.00000000E+00
  0.00000000E+00  0.00000000E+00  0.00000000E+00
  0.00000000E+00  0.00000000E+00  0.00000000E+00
