Ba1Cr1S2   [ORC,ORC,oP8] (STD_PRIM doi:1
   1.00000000000000     
     4.3526546627501546   -0.0000000000000000    0.0000000000000000
     0.0000000000000000    4.8614535821013067    0.0000000000000000
     0.0000000000000000    0.0000000000000000    9.5965331291241665
   2   2   4
Direct
  0.2500000000000000  0.7500000000000000  0.3226071146347624
  0.7500000000000000  0.2500000000000000  0.6773928853652377
  0.7500000000000000  0.2500000000000000  0.0944255942947381
  0.2500000000000000  0.7500000000000000  0.9055744057052619
  0.7500000000000000  0.7500000000000000  0.0544491169294318
  0.2500000000000000  0.2500000000000000  0.9455508830705682
  0.7500000000000000  0.2500000000000000  0.3512381697733577
  0.2500000000000000  0.7500000000000000  0.6487618302266422
 
  0.00000000E+00  0.00000000E+00  0.00000000E+00
  0.00000000E+00  0.00000000E+00  0.00000000E+00
  0.00000000E+00  0.00000000E+00  0.00000000E+00
  0.00000000E+00  0.00000000E+00  0.00000000E+00
  0.00000000E+00  0.00000000E+00  0.00000000E+00
  0.00000000E+00  0.00000000E+00  0.00000000E+00
  0.00000000E+00  0.00000000E+00  0.00000000E+00
  0.00000000E+00  0.00000000E+00  0.00000000E+00
