Os4Sc11   [FCC,FCC,cF120] (STD_PRIM doi:
   1.22474500000000     
    -0.0000000000000000    5.5467710508681991    5.5467710508681991
     5.5467710508681991    0.0000000000000000    5.5467710508681991
     5.5467710508681991    5.5467710508681991    0.0000000000000000
   8  22
Direct
  0.0000000000000000 -0.0000000000000000 -0.0000000000000000
  0.5000000000081428  0.4999999999918572  0.4999999999977618
  0.5000000000040714  0.4999999999959286  0.0000000000000000
  0.0000000000000000 -0.0000000000000000  0.4999999999966320
 -0.0000000000000000  0.5000000000000000  0.5000000000000000
  0.5000000000000000  0.0000000000000000  0.0000000000000000
 -0.0000000000000000  0.4999999999964331 -0.0000000000000000
  0.5000000000040714 -0.0000000000000000  0.4999999999959286
  0.8011611524693562  0.8011611524693562  0.1988388475306440
  0.1988388475306440  0.1988388475306440  0.8011611524693562
  0.1988388475339480  0.8011611524660521  0.8011611524684396
  0.8011611524823449  0.1988388475176553  0.1988388475270700
  0.1988388475306440  0.8011611524693562  0.1988388475306440
  0.8011611524693562  0.1988388475306440  0.8011611524693562
  0.3832682218970749  0.8501953343158024  0.3832682218891026
  0.3832682219008621  0.3832682218719857  0.3832682218880581
  0.3832682218970749  0.3832682218790911  0.8501953343258140
  0.8501953343375734  0.3832682218719857  0.3832682218880581
  0.6167317781154235  0.6167317780974467  0.6167317781074583
  0.6167317781192178  0.1498046656536300  0.6167317781064067
  0.6167317781192178  0.6167317780903342  0.1498046656696953
  0.1498046656787192  0.6167317780974467  0.6167317781074583
  0.1571966688458054  0.5284099934654615  0.1571966688425440
  0.1571966688569752  0.1571966688174761  0.1571966688394674
  0.1571966688458054  0.1571966688384442  0.5284099934695613
  0.5284099934839853  0.1571966688174761  0.1571966688394674
  0.8428033311593105  0.8428033311519564  0.8428033311560562
  0.8428033311704802  0.4715900065039710  0.8428033311529725
  0.8428033311704802  0.8428033311309812  0.4715900065259623
  0.4715900065323004  0.8428033311519564  0.8428033311560562
 
  0.00000000E+00  0.00000000E+00  0.00000000E+00
  0.00000000E+00  0.00000000E+00  0.00000000E+00
  0.00000000E+00  0.00000000E+00  0.00000000E+00
  0.00000000E+00  0.00000000E+00  0.00000000E+00
  0.00000000E+00  0.00000000E+00  0.00000000E+00
  0.00000000E+00  0.00000000E+00  0.00000000E+00
  0.00000000E+00  0.00000000E+00  0.00000000E+00
  0.00000000E+00  0.00000000E+00  0.00000000E+00
  0.00000000E+00  0.00000000E+00  0.00000000E+00
  0.00000000E+00  0.00000000E+00  0.00000000E+00
  0.00000000E+00  0.00000000E+00  0.00000000E+00
  0.00000000E+00  0.00000000E+00  0.00000000E+00
  0.00000000E+00  0.00000000E+00  0.00000000E+00
  0.00000000E+00  0.00000000E+00  0.00000000E+00
  0.00000000E+00  0.00000000E+00  0.00000000E+00
  0.00000000E+00  0.00000000E+00  0.00000000E+00
  0.00000000E+00  0.00000000E+00  0.00000000E+00
  0.00000000E+00  0.00000000E+00  0.00000000E+00
  0.00000000E+00  0.00000000E+00  0.00000000E+00
  0.00000000E+00  0.00000000E+00  0.00000000E+00
  0.00000000E+00  0.00000000E+00  0.00000000E+00
  0.00000000E+00  0.00000000E+00  0.00000000E+00
  0.00000000E+00  0.00000000E+00  0.00000000E+00
  0.00000000E+00  0.00000000E+00  0.00000000E+00
  0.00000000E+00  0.00000000E+00  0.00000000E+00
  0.00000000E+00  0.00000000E+00  0.00000000E+00
  0.00000000E+00  0.00000000E+00  0.00000000E+00
  0.00000000E+00  0.00000000E+00  0.00000000E+00
  0.00000000E+00  0.00000000E+00  0.00000000E+00
  0.00000000E+00  0.00000000E+00  0.00000000E+00
