Hf2O7Y2   [FCC,FCC,cF88] (STD_PRIM doi:1
   1.22474500000000     
     0.0000000000000000    4.2970422541803144    4.2970422541803144
     4.2970422541803144    0.0000000000000000    4.2970422541803144
     4.2970422541803144    4.2970422541803144    0.0000000000000000
   4  14   4
Direct
  0.0000000000000000  0.0000000000000000  0.0000000000000000
  0.0000000000000000  0.5000000000000000  0.5000000000000000
  0.0000000000000000  0.5000000000000000  0.0000000000000000
  0.5000000000000000  0.5000000000000000  0.0000000000000000
  0.0873147483660048  0.5873147483660048  0.6626852516339952
  0.6626852516339952  0.1626852516339952  0.0873147483660048
  0.6626852516339952  0.5873147483660048  0.6626852516339952
  0.0873147483660048  0.1626852516339952  0.0873147483660048
  0.6626852516339952  0.5873147483660048  0.0873147483660048
  0.0873147483660048  0.1626852516339952  0.6626852516339952
  0.9126852516339952  0.8373147483660048  0.9126852516339952
  0.3373147483660048  0.4126852516339952  0.3373147483660048
  0.3373147483660048  0.8373147483660048  0.9126852516339952
  0.9126852516339952  0.4126852516339952  0.3373147483660048
  0.3373147483660048  0.4126852516339952  0.9126852516339952
  0.9126852516339952  0.8373147483660048  0.3373147483660048
  0.6250000000000000  0.1250000000000000  0.6250000000000000
  0.3750000000000000  0.8750000000000000  0.3750000000000000
  0.5000000000000000  0.5000000000000000  0.5000000000000000
  0.5000000000000000  0.0000000000000000  0.0000000000000000
  0.5000000000000000  0.0000000000000000  0.5000000000000000
  0.0000000000000000  0.0000000000000000  0.5000000000000000
 
  0.00000000E+00  0.00000000E+00  0.00000000E+00
  0.00000000E+00  0.00000000E+00  0.00000000E+00
  0.00000000E+00  0.00000000E+00  0.00000000E+00
  0.00000000E+00  0.00000000E+00  0.00000000E+00
  0.00000000E+00  0.00000000E+00  0.00000000E+00
  0.00000000E+00  0.00000000E+00  0.00000000E+00
  0.00000000E+00  0.00000000E+00  0.00000000E+00
  0.00000000E+00  0.00000000E+00  0.00000000E+00
  0.00000000E+00  0.00000000E+00  0.00000000E+00
  0.00000000E+00  0.00000000E+00  0.00000000E+00
  0.00000000E+00  0.00000000E+00  0.00000000E+00
  0.00000000E+00  0.00000000E+00  0.00000000E+00
  0.00000000E+00  0.00000000E+00  0.00000000E+00
  0.00000000E+00  0.00000000E+00  0.00000000E+00
  0.00000000E+00  0.00000000E+00  0.00000000E+00
  0.00000000E+00  0.00000000E+00  0.00000000E+00
  0.00000000E+00  0.00000000E+00  0.00000000E+00
  0.00000000E+00  0.00000000E+00  0.00000000E+00
  0.00000000E+00  0.00000000E+00  0.00000000E+00
  0.00000000E+00  0.00000000E+00  0.00000000E+00
  0.00000000E+00  0.00000000E+00  0.00000000E+00
  0.00000000E+00  0.00000000E+00  0.00000000E+00
