Ca1Ir1Sn2   [ORCC,ORCC,oS16] (STD_PRIM d
   1.00000000000000     
     2.1705890419162337   -5.4777565535650501    0.0000000000000000
     2.1705890419162337    5.4777565535650501    0.0000000000000000
     0.0000000000000000    0.0000000000000000    7.7772001744332702
   2   2   4
Direct
  0.0676197195183283  0.9323802804816718  0.7500000000000000
  0.9323802804816718  0.0676197195183283  0.2500000000000000
  0.7882725117428310  0.2117274882571690  0.7500000000000000
  0.2117274882571690  0.7882725117428310  0.2500000000000000
  0.3559319120916309  0.6440680879083691  0.9543853186716316
  0.6440680879083691  0.3559319120916309  0.4543853186716316
  0.3559319120916309  0.6440680879083691  0.5456146813283684
  0.6440680879083691  0.3559319120916309  0.0456146813283684
 
  0.00000000E+00  0.00000000E+00  0.00000000E+00
  0.00000000E+00  0.00000000E+00  0.00000000E+00
  0.00000000E+00  0.00000000E+00  0.00000000E+00
  0.00000000E+00  0.00000000E+00  0.00000000E+00
  0.00000000E+00  0.00000000E+00  0.00000000E+00
  0.00000000E+00  0.00000000E+00  0.00000000E+00
  0.00000000E+00  0.00000000E+00  0.00000000E+00
  0.00000000E+00  0.00000000E+00  0.00000000E+00
