N2Ru1   [ORC,ORC,oP6] (STD_PRIM doi:10.1
   1.00000000000000     
     2.7637202682718027    0.0000000000000000    0.0000000000000000
     0.0000000000000000    4.0825019154899298    0.0000000000000000
     0.0000000000000000    0.0000000000000000    4.9524594622636577
   4   2
Direct
  0.0000000000000000  0.1214718211418176  0.5873523545318901
  0.0000000000000000  0.8785281788581825  0.4126476454681100
  0.5000000000000000  0.3785281788581824  0.0873523545318900
  0.5000000000000000  0.6214718211418175  0.9126476454681099
  0.0000000000000000  0.0000000000000000  0.0000000000000000
  0.5000000000000000  0.5000000000000000  0.5000000000000000
 
  0.00000000E+00  0.00000000E+00  0.00000000E+00
  0.00000000E+00  0.00000000E+00  0.00000000E+00
  0.00000000E+00  0.00000000E+00  0.00000000E+00
  0.00000000E+00  0.00000000E+00  0.00000000E+00
  0.00000000E+00  0.00000000E+00  0.00000000E+00
  0.00000000E+00  0.00000000E+00  0.00000000E+00
