C2Si1Ti3   [HEX,HEX,hP12] (STD_PRIM doi:
   1.00000000000000     
     1.5610683785312065   -2.7038547409813183    0.0000000000000000
     1.5610683785312065    2.7038547409813183   -0.0000000000000000
     0.0000000000000000   -0.0000000000000000   17.9012289859545035
   4   2   6
Direct
  0.3333367954236077  0.6666632045763924  0.0726133123012979
  0.6666632045763924  0.3333367954236077  0.5726133123012980
  0.6666632045763924  0.3333367954236077  0.9273866876987020
  0.3333367954236077  0.6666632045763924  0.4273866876987021
  0.0000041310721093  0.9999958689278907  0.2500000000000000
  0.9999958689278907  0.0000041310721093  0.7500000000000000
  0.0000000000000000  0.0000000000000000  0.0000000000000000
 -0.0000000000000000 -0.0000000000000000  0.5000000000000000
  0.6666688012376054  0.3333311987623946  0.1363364999137681
  0.3333311987623946  0.6666688012376054  0.6363364999137681
  0.3333311987623946  0.6666688012376054  0.8636635000862319
  0.6666688012376054  0.3333311987623946  0.3636635000862318
 
  0.00000000E+00  0.00000000E+00  0.00000000E+00
  0.00000000E+00  0.00000000E+00  0.00000000E+00
  0.00000000E+00  0.00000000E+00  0.00000000E+00
  0.00000000E+00  0.00000000E+00  0.00000000E+00
  0.00000000E+00  0.00000000E+00  0.00000000E+00
  0.00000000E+00  0.00000000E+00  0.00000000E+00
  0.00000000E+00  0.00000000E+00  0.00000000E+00
  0.00000000E+00  0.00000000E+00  0.00000000E+00
  0.00000000E+00  0.00000000E+00  0.00000000E+00
  0.00000000E+00  0.00000000E+00  0.00000000E+00
  0.00000000E+00  0.00000000E+00  0.00000000E+00
  0.00000000E+00  0.00000000E+00  0.00000000E+00
