N1Nb1 #194 - (N1Nb1_ICSD_644540) - N1Nb1
   1.00000000000000     
     1.4999150369480576   -2.5979290510305897    0.0000000000000000
     1.4999191888921644    2.5979314481566371    0.0000000000000000
     0.0000000000000000    0.0000000000000000   11.3328919091655944
   4   4
Direct
  0.0000000000000000  0.0000000000000000  0.0000000000000000
 -0.0000000000000000 -0.0000000000000000  0.5000000000000000
  0.6666654219407667  0.3333308438815334  0.7500000000000000
  0.3333345780592333  0.6666691561184667  0.2500000000000000
  0.6666727552761589  0.3333455105523107  0.1220394302921746
  0.3333272447238411  0.6666544894476893  0.6220394302921747
  0.3333272447238411  0.6666544894476893  0.8779605697078253
  0.6666727552761589  0.3333455105523107  0.3779605697078254
 
  0.00000000E+00  0.00000000E+00  0.00000000E+00
  0.00000000E+00  0.00000000E+00  0.00000000E+00
  0.00000000E+00  0.00000000E+00  0.00000000E+00
  0.00000000E+00  0.00000000E+00  0.00000000E+00
  0.00000000E+00  0.00000000E+00  0.00000000E+00
  0.00000000E+00  0.00000000E+00  0.00000000E+00
  0.00000000E+00  0.00000000E+00  0.00000000E+00
  0.00000000E+00  0.00000000E+00  0.00000000E+00
