Cd1Se4Yb2   [FCC,FCC,cF56] (STD_PRIM doi
   1.22474500000000     
     0.0000000000000000    4.8310978238450684    4.8310978238450684
     4.8310978238450684   -0.0000000000000000    4.8310978238450684
     4.8310978238450684    4.8310978238450684    0.0000000000000000
   2   8   4
Direct
 -0.0000000000000000  0.0000000000000000  0.0000000000000000
  0.7500000000000000  0.7500000000000000  0.7500000000000000
  0.6196867583175123  0.6196867583175123  0.1409397250474630
  0.6196867583175123  0.6196867583175123  0.6196867583175123
  0.6196867583175123  0.1409397250474630  0.6196867583175123
  0.1409397250474630  0.6196867583175123  0.6196867583175123
  0.1303132416824877  0.1303132416824877  0.1303132416824877
  0.1303132416824877  0.1303132416824877  0.6090602749525370
  0.1303132416824877  0.6090602749525370  0.1303132416824877
  0.6090602749525370  0.1303132416824877  0.1303132416824877
  0.3750000000000000  0.3750000000000000  0.8750000000000000
  0.3750000000000000  0.3750000000000000  0.3750000000000000
  0.3750000000000000  0.8750000000000000  0.3750000000000000
  0.8750000000000000  0.3750000000000000  0.3750000000000000
 
  0.00000000E+00  0.00000000E+00  0.00000000E+00
  0.00000000E+00  0.00000000E+00  0.00000000E+00
  0.00000000E+00  0.00000000E+00  0.00000000E+00
  0.00000000E+00  0.00000000E+00  0.00000000E+00
  0.00000000E+00  0.00000000E+00  0.00000000E+00
  0.00000000E+00  0.00000000E+00  0.00000000E+00
  0.00000000E+00  0.00000000E+00  0.00000000E+00
  0.00000000E+00  0.00000000E+00  0.00000000E+00
  0.00000000E+00  0.00000000E+00  0.00000000E+00
  0.00000000E+00  0.00000000E+00  0.00000000E+00
  0.00000000E+00  0.00000000E+00  0.00000000E+00
  0.00000000E+00  0.00000000E+00  0.00000000E+00
  0.00000000E+00  0.00000000E+00  0.00000000E+00
  0.00000000E+00  0.00000000E+00  0.00000000E+00
