In1N1   [HEX,HEX,hP4] (STD_PRIM doi:10.1
   1.00000000000000     
     1.7822178345669972   -3.0866202304101131    0.0000000000000000
     1.7822178345669972    3.0866202304101131    0.0000000000000000
     0.0000000000000000    0.0000000000000000    5.7662868991960714
   2   2
Direct
  0.3333227380242849  0.6666772619757152  0.9992460399835079
  0.6666772619757152  0.3333227380242849  0.4992460399835080
  0.3333223166255137  0.6666776833744863  0.3776539600164911
  0.6666776833744863  0.3333223166255137  0.8776539600164912
 
  0.00000000E+00  0.00000000E+00  0.00000000E+00
  0.00000000E+00  0.00000000E+00  0.00000000E+00
  0.00000000E+00  0.00000000E+00  0.00000000E+00
  0.00000000E+00  0.00000000E+00  0.00000000E+00
