Hg5Pd2   [TET,TET,tP14] (STD_PRIM doi:10
   1.00000000000000     
     9.8573196411588029    0.0000000000000000    0.0000000000000000
     0.0000000000000000    9.8573196411588029   -0.0000000000000001
     0.0000000000000000    0.0000000000000000    3.0334091721521799
  10   4
Direct
  0.0000000000000000  0.5000000000000000  0.0000000000000000
  0.5000000000000000  0.0000000000000000  0.0000000000000000
  0.0643693686111235  0.2040248869192730 -0.0000000000000000
  0.9356306313888765  0.7959751130807271  0.0000000000000000
  0.7959751130807271  0.0643693686111235 -0.0000000000000000
  0.2040248869192730  0.9356306313888765  0.0000000000000000
  0.4356306313888765  0.7040248869192729 -0.0000000000000000
  0.5643693686111235  0.2959751130807270  0.0000000000000000
  0.7040248869192729  0.5643693686111235 -0.0000000000000000
  0.2959751130807270  0.4356306313888765  0.0000000000000000
  0.1799043929071075  0.6799043929071075  0.5000000000000000
  0.8200956070928925  0.3200956070928925  0.5000000000000000
  0.3200956070928925  0.1799043929071075  0.5000000000000000
  0.6799043929071075  0.8200956070928925  0.5000000000000000
 
  0.00000000E+00  0.00000000E+00  0.00000000E+00
  0.00000000E+00  0.00000000E+00  0.00000000E+00
  0.00000000E+00  0.00000000E+00  0.00000000E+00
  0.00000000E+00  0.00000000E+00  0.00000000E+00
  0.00000000E+00  0.00000000E+00  0.00000000E+00
  0.00000000E+00  0.00000000E+00  0.00000000E+00
  0.00000000E+00  0.00000000E+00  0.00000000E+00
  0.00000000E+00  0.00000000E+00  0.00000000E+00
  0.00000000E+00  0.00000000E+00  0.00000000E+00
  0.00000000E+00  0.00000000E+00  0.00000000E+00
  0.00000000E+00  0.00000000E+00  0.00000000E+00
  0.00000000E+00  0.00000000E+00  0.00000000E+00
  0.00000000E+00  0.00000000E+00  0.00000000E+00
  0.00000000E+00  0.00000000E+00  0.00000000E+00
