Ni2Si1Zn3   [FCC,FCC,cF96] (STD_PRIM doi
   1.22474500000000     
    -0.0000000000000000    4.3242289173328219    4.3242289173328219
     4.3242289173328219    0.0000000000000000    4.3242289173328219
     4.3242289173328219    4.3242289173328219    0.0000000000000000
   8   4  12
Direct
  0.5118131604056809  0.1627289465314397  0.1627289465314397
  0.1627289465314397  0.5118131604056809  0.1627289465314397
  0.1627289465314397  0.1627289465314397  0.1627289465314397
  0.1627289465314397  0.1627289465314397  0.5118131604056809
  0.5872710534685603  0.2381868395943191  0.5872710534685603
  0.2381868395943191  0.5872710534685603  0.5872710534685603
  0.5872710534685603  0.5872710534685603  0.5872710534685603
  0.5872710534685603  0.5872710534685603  0.2381868395943191
  0.8750000000000000  0.3750000000000000  0.3750000000000000
  0.3750000000000000  0.8750000000000000  0.3750000000000000
  0.3750000000000000  0.3750000000000000  0.3750000000000000
  0.3750000000000000  0.3750000000000000  0.8750000000000000
  0.1876799341049502  0.8123200658950498  0.1876799341049502
  0.8123200658950498  0.1876799341049502  0.8123200658950498
  0.1876799341049502  0.8123200658950498  0.8123200658950498
  0.8123200658950498  0.1876799341049502  0.1876799341049502
  0.1876799341049502  0.1876799341049502  0.8123200658950498
  0.8123200658950498  0.8123200658950498  0.1876799341049502
  0.9376799341049502  0.5623200658950498  0.5623200658950498
  0.5623200658950498  0.9376799341049502  0.9376799341049502
  0.9376799341049502  0.5623200658950498  0.9376799341049502
  0.5623200658950498  0.9376799341049502  0.5623200658950498
  0.5623200658950498  0.5623200658950498  0.9376799341049502
  0.9376799341049502  0.9376799341049502  0.5623200658950498
 
  0.00000000E+00  0.00000000E+00  0.00000000E+00
  0.00000000E+00  0.00000000E+00  0.00000000E+00
  0.00000000E+00  0.00000000E+00  0.00000000E+00
  0.00000000E+00  0.00000000E+00  0.00000000E+00
  0.00000000E+00  0.00000000E+00  0.00000000E+00
  0.00000000E+00  0.00000000E+00  0.00000000E+00
  0.00000000E+00  0.00000000E+00  0.00000000E+00
  0.00000000E+00  0.00000000E+00  0.00000000E+00
  0.00000000E+00  0.00000000E+00  0.00000000E+00
  0.00000000E+00  0.00000000E+00  0.00000000E+00
  0.00000000E+00  0.00000000E+00  0.00000000E+00
  0.00000000E+00  0.00000000E+00  0.00000000E+00
  0.00000000E+00  0.00000000E+00  0.00000000E+00
  0.00000000E+00  0.00000000E+00  0.00000000E+00
  0.00000000E+00  0.00000000E+00  0.00000000E+00
  0.00000000E+00  0.00000000E+00  0.00000000E+00
  0.00000000E+00  0.00000000E+00  0.00000000E+00
  0.00000000E+00  0.00000000E+00  0.00000000E+00
  0.00000000E+00  0.00000000E+00  0.00000000E+00
  0.00000000E+00  0.00000000E+00  0.00000000E+00
  0.00000000E+00  0.00000000E+00  0.00000000E+00
  0.00000000E+00  0.00000000E+00  0.00000000E+00
  0.00000000E+00  0.00000000E+00  0.00000000E+00
  0.00000000E+00  0.00000000E+00  0.00000000E+00
