N2O1   [CUB,CUB,cP12] (STD_PRIM doi:10.1
   1.00000000000000     
     5.9522521059370650    0.0000000000000000    0.0000000000000000
     0.0000000000000000    5.9522521059370650    0.0000000000000000
     0.0000000000000000    0.0000000000000000    5.9522521059370650
   8   4
Direct
  0.1161139489808107  0.1161139489808107  0.1161139489808107
  0.3838860510191893  0.8838860510191893  0.6161139489808107
  0.8838860510191893  0.6161139489808107  0.3838860510191893
  0.6161139489808107  0.3838860510191893  0.8838860510191893
  0.8838860510191893  0.8838860510191893  0.8838860510191893
  0.6161139489808107  0.1161139489808107  0.3838860510191893
  0.1161139489808107  0.3838860510191893  0.6161139489808107
  0.3838860510191893  0.6161139489808107  0.1161139489808107
  0.0000000000000000  0.0000000000000000  0.0000000000000000
  0.5000000000000000  0.0000000000000000  0.5000000000000000
  0.0000000000000000  0.5000000000000000  0.5000000000000000
  0.5000000000000000  0.5000000000000000  0.0000000000000000
 
  0.00000000E+00  0.00000000E+00  0.00000000E+00
  0.00000000E+00  0.00000000E+00  0.00000000E+00
  0.00000000E+00  0.00000000E+00  0.00000000E+00
  0.00000000E+00  0.00000000E+00  0.00000000E+00
  0.00000000E+00  0.00000000E+00  0.00000000E+00
  0.00000000E+00  0.00000000E+00  0.00000000E+00
  0.00000000E+00  0.00000000E+00  0.00000000E+00
  0.00000000E+00  0.00000000E+00  0.00000000E+00
  0.00000000E+00  0.00000000E+00  0.00000000E+00
  0.00000000E+00  0.00000000E+00  0.00000000E+00
  0.00000000E+00  0.00000000E+00  0.00000000E+00
  0.00000000E+00  0.00000000E+00  0.00000000E+00
