Ag5S4Sb1   [ORCC,ORCC,oS40] (STD_PRIM do
   1.00000000000000     
     3.9708579185866486   -6.3499950194645463    0.0000000000000000
     3.9708579185866486    6.3499950194645463    0.0000000000000000
     0.0000000000000000    0.0000000000000000    8.7713531339473256
  10   8   2
Direct
  0.8581664935824029  0.1418335064175971  0.8260030915332041
  0.1418335064175971  0.8581664935824029  0.3260030915332041
  0.2502732246224683  0.1281784665666483  0.6777502131743450
  0.7497267753775317  0.8718215334333517  0.1777502131743450
  0.1281784665666483  0.2502732246224683  0.1777502131743450
  0.8718215334333517  0.7497267753775317  0.6777502131743450
  0.4327290624797417  0.1865399097268736  0.9871174561514908
  0.5672709375202583  0.8134600902731263  0.4871174561514909
  0.1865399097268736  0.4327290624797417  0.4871174561514909
  0.8134600902731263  0.5672709375202583  0.9871174561514908
  0.0270323534607938  0.9729676465392062  0.9771091275074545
  0.9729676465392062  0.0270323534607938  0.4771091275074544
  0.5148999755706527  0.4851000244293474  0.7951602304854091
  0.4851000244293474  0.5148999755706527  0.2951602304854090
  0.4955890447050176  0.9645455159921436  0.7308159772205410
  0.5044109552949824  0.0354544840078565  0.2308159772205411
  0.9645455159921436  0.4955890447050176  0.2308159772205411
  0.0354544840078565  0.5044109552949824  0.7308159772205410
  0.3306179007333931  0.6693820992666069  0.8946602573811875
  0.6693820992666069  0.3306179007333931  0.3946602573811875
 
  0.00000000E+00  0.00000000E+00  0.00000000E+00
  0.00000000E+00  0.00000000E+00  0.00000000E+00
  0.00000000E+00  0.00000000E+00  0.00000000E+00
  0.00000000E+00  0.00000000E+00  0.00000000E+00
  0.00000000E+00  0.00000000E+00  0.00000000E+00
  0.00000000E+00  0.00000000E+00  0.00000000E+00
  0.00000000E+00  0.00000000E+00  0.00000000E+00
  0.00000000E+00  0.00000000E+00  0.00000000E+00
  0.00000000E+00  0.00000000E+00  0.00000000E+00
  0.00000000E+00  0.00000000E+00  0.00000000E+00
  0.00000000E+00  0.00000000E+00  0.00000000E+00
  0.00000000E+00  0.00000000E+00  0.00000000E+00
  0.00000000E+00  0.00000000E+00  0.00000000E+00
  0.00000000E+00  0.00000000E+00  0.00000000E+00
  0.00000000E+00  0.00000000E+00  0.00000000E+00
  0.00000000E+00  0.00000000E+00  0.00000000E+00
  0.00000000E+00  0.00000000E+00  0.00000000E+00
  0.00000000E+00  0.00000000E+00  0.00000000E+00
  0.00000000E+00  0.00000000E+00  0.00000000E+00
  0.00000000E+00  0.00000000E+00  0.00000000E+00
