Cd1Se4Y2   [FCC,FCC,cF56] (STD_PRIM doi:
   1.22474500000000     
     0.0000000000000000    4.8210754148225741    4.8210754148225741
     4.8210754148225741   -0.0000000000000000    4.8210754148225741
     4.8210754148225741    4.8210754148225741    0.0000000000000000
   2   8   4
Direct
  0.6250000000000000  0.6250000000000000  0.1250000000000000
  0.3750000000000000  0.3750000000000000  0.8750000000000000
  0.7568477077931353  0.7568477077931353  0.7294568766205870
  0.7568477077931353  0.2294568766205870  0.2568477077931353
  0.2294568766205870  0.7568477077931353  0.2568477077931353
  0.7568477077931353  0.7568477077931353  0.2568477077931353
  0.2431522922068647  0.7705431233794130  0.7431522922068647
  0.2431522922068647  0.2431522922068647  0.2705431233794130
  0.7705431233794130  0.2431522922068647  0.7431522922068647
  0.2431522922068647  0.2431522922068647  0.7431522922068647
  0.0000000000000000 -0.0000000000000000  0.0000000000000000
  0.0000000000000000  0.5000000000000000  0.5000000000000000
  0.5000000000000000  0.0000000000000000  0.5000000000000000
  0.0000000000000000 -0.0000000000000000  0.5000000000000000
 
  0.00000000E+00  0.00000000E+00  0.00000000E+00
  0.00000000E+00  0.00000000E+00  0.00000000E+00
  0.00000000E+00  0.00000000E+00  0.00000000E+00
  0.00000000E+00  0.00000000E+00  0.00000000E+00
  0.00000000E+00  0.00000000E+00  0.00000000E+00
  0.00000000E+00  0.00000000E+00  0.00000000E+00
  0.00000000E+00  0.00000000E+00  0.00000000E+00
  0.00000000E+00  0.00000000E+00  0.00000000E+00
  0.00000000E+00  0.00000000E+00  0.00000000E+00
  0.00000000E+00  0.00000000E+00  0.00000000E+00
  0.00000000E+00  0.00000000E+00  0.00000000E+00
  0.00000000E+00  0.00000000E+00  0.00000000E+00
  0.00000000E+00  0.00000000E+00  0.00000000E+00
  0.00000000E+00  0.00000000E+00  0.00000000E+00
