S3Sn2   [ORC,ORC,oP20] (STD_PRIM doi:10.
   1.00000000000000     
     3.8599999918285253   -0.0000000000000000    0.0000000000000000
    -0.0000000000000000    9.2557771870836998    0.0000000000000000
     0.0000000000000000    0.0000000000000000   14.5312519399183238
  12   8
Direct
  0.7500000000000000  0.9827209924596391  0.8942796023365076
  0.2500000000000000  0.5172790075403609  0.3942796023365077
  0.2500000000000000  0.0172790075403608  0.1057203976634924
  0.7500000000000000  0.4827209924596392  0.6057203976634924
  0.7500000000000000  0.3371757897934788  0.0049101643905827
  0.2500000000000000  0.1628242102065211  0.5049101643905827
  0.2500000000000000  0.6628242102065210  0.9950898356094173
  0.7500000000000000  0.8371757897934790  0.4950898356094173
  0.2500000000000000  0.2845943117884671  0.7919162779653721
  0.7500000000000000  0.2154056882115329  0.2919162779653721
  0.7500000000000000  0.7154056882115329  0.2080837220346279
  0.2500000000000000  0.7845943117884671  0.7080837220346279
  0.2500000000000000  0.1625806201481877  0.9506014271251448
  0.7500000000000000  0.3374193798518123  0.4506014271251449
  0.7500000000000000  0.8374193798518123  0.0493985728748551
  0.2500000000000000  0.6625806201481877  0.5493985728748552
  0.7500000000000000  0.4757626337836542  0.8354965351257153
  0.2500000000000000  0.0242373662163457  0.3354965351257153
  0.2500000000000000  0.5242373662163458  0.1645034648742847
  0.7500000000000000  0.9757626337836542  0.6645034648742847
 
  0.00000000E+00  0.00000000E+00  0.00000000E+00
  0.00000000E+00  0.00000000E+00  0.00000000E+00
  0.00000000E+00  0.00000000E+00  0.00000000E+00
  0.00000000E+00  0.00000000E+00  0.00000000E+00
  0.00000000E+00  0.00000000E+00  0.00000000E+00
  0.00000000E+00  0.00000000E+00  0.00000000E+00
  0.00000000E+00  0.00000000E+00  0.00000000E+00
  0.00000000E+00  0.00000000E+00  0.00000000E+00
  0.00000000E+00  0.00000000E+00  0.00000000E+00
  0.00000000E+00  0.00000000E+00  0.00000000E+00
  0.00000000E+00  0.00000000E+00  0.00000000E+00
  0.00000000E+00  0.00000000E+00  0.00000000E+00
  0.00000000E+00  0.00000000E+00  0.00000000E+00
  0.00000000E+00  0.00000000E+00  0.00000000E+00
  0.00000000E+00  0.00000000E+00  0.00000000E+00
  0.00000000E+00  0.00000000E+00  0.00000000E+00
  0.00000000E+00  0.00000000E+00  0.00000000E+00
  0.00000000E+00  0.00000000E+00  0.00000000E+00
  0.00000000E+00  0.00000000E+00  0.00000000E+00
  0.00000000E+00  0.00000000E+00  0.00000000E+00
