Ni16Si7Zr6   [FCC,FCC,cF116] (STD_PRIM d
   1.22474500000000     
    -0.0000000000000000    4.6584469543851430    4.6584469543851430
     4.6584469543851430   -0.0000000000000000    4.6584469543851430
     4.6584469543851430    4.6584469543851430   -0.0000000000000000
  16   7   6
Direct
  0.5069834753095188  0.8310055082301604  0.8310055082301604
  0.8310055082301604  0.8310055082301604  0.5069834753095188
  0.8310055082301604  0.5069834753095188  0.8310055082301604
  0.8310055082301604  0.8310055082301604  0.8310055082301604
  0.1689944917698396  0.1689944917698396  0.4930165246904813
  0.4930165246904813  0.1689944917698396  0.1689944917698396
  0.1689944917698396  0.4930165246904813  0.1689944917698396
  0.1689944917698396  0.1689944917698396  0.1689944917698396
  0.1458662232168302  0.6180445922610590  0.6180445922610590
  0.6180445922610590  0.6180445922610590  0.1458662232168302
  0.6180445922610590  0.1458662232168302  0.6180445922610590
  0.6180445922610590  0.6180445922610590  0.6180445922610590
  0.3819554077389410  0.3819554077389410  0.8541337767831698
  0.8541337767831698  0.3819554077389410  0.3819554077389410
  0.3819554077389410  0.8541337767831698  0.3819554077389410
  0.3819554077389410  0.3819554077389410  0.3819554077389410
  0.5000000000000000 -0.0000000000000000  0.0000000000000000
 -0.0000000000000000  0.5000000000000000  0.5000000000000000
  0.5000000000000000  0.5000000000000000 -0.0000000000000000
 -0.0000000000000000  0.0000000000000000  0.5000000000000000
  0.5000000000000000  0.0000000000000000  0.5000000000000000
 -0.0000000000000000  0.5000000000000000  0.0000000000000000
  0.5000000000000000  0.5000000000000000  0.5000000000000000
  0.2082326495041811  0.7917673504958189  0.7917673504958189
  0.7917673504958189  0.2082326495041811  0.2082326495041811
  0.2082326495041811  0.2082326495041811  0.7917673504958189
  0.7917673504958189  0.7917673504958189  0.2082326495041811
  0.2082326495041811  0.7917673504958189  0.2082326495041811
  0.7917673504958189  0.2082326495041811  0.7917673504958189
 
  0.00000000E+00  0.00000000E+00  0.00000000E+00
  0.00000000E+00  0.00000000E+00  0.00000000E+00
  0.00000000E+00  0.00000000E+00  0.00000000E+00
  0.00000000E+00  0.00000000E+00  0.00000000E+00
  0.00000000E+00  0.00000000E+00  0.00000000E+00
  0.00000000E+00  0.00000000E+00  0.00000000E+00
  0.00000000E+00  0.00000000E+00  0.00000000E+00
  0.00000000E+00  0.00000000E+00  0.00000000E+00
  0.00000000E+00  0.00000000E+00  0.00000000E+00
  0.00000000E+00  0.00000000E+00  0.00000000E+00
  0.00000000E+00  0.00000000E+00  0.00000000E+00
  0.00000000E+00  0.00000000E+00  0.00000000E+00
  0.00000000E+00  0.00000000E+00  0.00000000E+00
  0.00000000E+00  0.00000000E+00  0.00000000E+00
  0.00000000E+00  0.00000000E+00  0.00000000E+00
  0.00000000E+00  0.00000000E+00  0.00000000E+00
  0.00000000E+00  0.00000000E+00  0.00000000E+00
  0.00000000E+00  0.00000000E+00  0.00000000E+00
  0.00000000E+00  0.00000000E+00  0.00000000E+00
  0.00000000E+00  0.00000000E+00  0.00000000E+00
  0.00000000E+00  0.00000000E+00  0.00000000E+00
  0.00000000E+00  0.00000000E+00  0.00000000E+00
  0.00000000E+00  0.00000000E+00  0.00000000E+00
  0.00000000E+00  0.00000000E+00  0.00000000E+00
  0.00000000E+00  0.00000000E+00  0.00000000E+00
  0.00000000E+00  0.00000000E+00  0.00000000E+00
  0.00000000E+00  0.00000000E+00  0.00000000E+00
  0.00000000E+00  0.00000000E+00  0.00000000E+00
  0.00000000E+00  0.00000000E+00  0.00000000E+00
