O2Re1   [TET,TET,tP6] (STD_PRIM doi:10.1
   1.00000000000000     
     4.9444553175296075   -0.0000000000000000    0.0000000000000000
     0.0000000000000000    4.9444553175296075    0.0000000000000000
     0.0000000000000000    0.0000000000000000    2.7564435933532700
   4   2
Direct
  0.2840891882072763  0.2840891882072763  0.0000000000000000
  0.7159108117927236  0.7159108117927236  0.0000000000000000
  0.2159108117927237  0.7840891882072764  0.5000000000000000
  0.7840891882072764  0.2159108117927237  0.5000000000000000
  0.0000000000000000  0.0000000000000000  0.0000000000000000
  0.5000000000000000  0.5000000000000000  0.5000000000000000
 
  0.00000000E+00  0.00000000E+00  0.00000000E+00
  0.00000000E+00  0.00000000E+00  0.00000000E+00
  0.00000000E+00  0.00000000E+00  0.00000000E+00
  0.00000000E+00  0.00000000E+00  0.00000000E+00
  0.00000000E+00  0.00000000E+00  0.00000000E+00
  0.00000000E+00  0.00000000E+00  0.00000000E+00
