C1Ga1Ti2   [HEX,HEX,hP8] (STD_PRIM doi:1
   1.00000000000000     
     1.5601477433175619   -2.7022551587399479    0.0000000000000000
     1.5601332034168007    2.7022467641243288   -0.0000000000000000
     0.0000000000000000    0.0000000000000000   13.5190751086322845
   2   2   4
Direct
  0.0000000000000000  0.0000000000000000  0.0000000000000000
 -0.0000000000000000 -0.0000000000000000  0.5000000000000000
  0.3333241858646382  0.6666483717292693  0.2500000000000000
  0.6666758141353618  0.3333516282707308  0.7500000000000000
  0.6666742907535674  0.3333485815071348  0.0866766586343705
  0.3333257092464326  0.6666514184928652  0.5866766586343706
  0.3333257092464326  0.6666514184928652  0.9133233413656294
  0.6666742907535674  0.3333485815071348  0.4133233413656295
 
  0.00000000E+00  0.00000000E+00  0.00000000E+00
  0.00000000E+00  0.00000000E+00  0.00000000E+00
  0.00000000E+00  0.00000000E+00  0.00000000E+00
  0.00000000E+00  0.00000000E+00  0.00000000E+00
  0.00000000E+00  0.00000000E+00  0.00000000E+00
  0.00000000E+00  0.00000000E+00  0.00000000E+00
  0.00000000E+00  0.00000000E+00  0.00000000E+00
  0.00000000E+00  0.00000000E+00  0.00000000E+00
