C2Si1   [CUB,CUB,cP12] (STD_PRIM doi:10.
   1.00000000000000     
     4.7882157690843856    0.0000000000000000    0.0000000000000000
     0.0000000000000000    4.7882157690843856    0.0000000000000000
     0.0000000000000000    0.0000000000000000    4.7882157690843856
   8   4
Direct
  0.4179752233757767  0.4179752233757767  0.4179752233757767
  0.0820247766242233  0.5820247766242233  0.9179752233757767
  0.5820247766242233  0.9179752233757767  0.0820247766242233
  0.9179752233757767  0.0820247766242233  0.5820247766242233
  0.5820247766242233  0.5820247766242233  0.5820247766242233
  0.9179752233757767  0.4179752233757767  0.0820247766242233
  0.4179752233757767  0.0820247766242233  0.9179752233757767
  0.0820247766242233  0.9179752233757767  0.4179752233757767
  0.0000000000000000  0.0000000000000000  0.0000000000000000
  0.5000000000000000  0.0000000000000000  0.5000000000000000
  0.0000000000000000  0.5000000000000000  0.5000000000000000
  0.5000000000000000  0.5000000000000000  0.0000000000000000
 
  0.00000000E+00  0.00000000E+00  0.00000000E+00
  0.00000000E+00  0.00000000E+00  0.00000000E+00
  0.00000000E+00  0.00000000E+00  0.00000000E+00
  0.00000000E+00  0.00000000E+00  0.00000000E+00
  0.00000000E+00  0.00000000E+00  0.00000000E+00
  0.00000000E+00  0.00000000E+00  0.00000000E+00
  0.00000000E+00  0.00000000E+00  0.00000000E+00
  0.00000000E+00  0.00000000E+00  0.00000000E+00
  0.00000000E+00  0.00000000E+00  0.00000000E+00
  0.00000000E+00  0.00000000E+00  0.00000000E+00
  0.00000000E+00  0.00000000E+00  0.00000000E+00
  0.00000000E+00  0.00000000E+00  0.00000000E+00
