Ge1Rh1Y1   [ORC,ORC,oP12] (STD_PRIM doi:
   1.00000000000000     
     4.3136062669551309    0.0000000000000000    0.0000000000000000
    -0.0000000000000000    6.9391103152872162    0.0000000000000000
     0.0000000000000000    0.0000000000000000    7.5759295338148744
   4   4   4
Direct
  0.2500000000000000  0.7891446336744838  0.3960005436487441
  0.7500000000000000  0.7108553663255162  0.8960005436487440
  0.7500000000000000  0.2108553663255162  0.6039994563512560
  0.2500000000000000  0.2891446336744837  0.1039994563512559
  0.2500000000000000  0.1554603782656053  0.4314744652844121
  0.7500000000000000  0.3445396217343947  0.9314744652844122
  0.7500000000000000  0.8445396217343948  0.5685255347155878
  0.2500000000000000  0.6554603782656052  0.0685255347155878
  0.2500000000000000  0.5025781128133441  0.6959631909457964
  0.7500000000000000  0.9974218871866559  0.1959631909457965
  0.7500000000000000  0.4974218871866560  0.3040368090542035
  0.2500000000000000  0.0025781128133440  0.8040368090542036
 
  0.00000000E+00  0.00000000E+00  0.00000000E+00
  0.00000000E+00  0.00000000E+00  0.00000000E+00
  0.00000000E+00  0.00000000E+00  0.00000000E+00
  0.00000000E+00  0.00000000E+00  0.00000000E+00
  0.00000000E+00  0.00000000E+00  0.00000000E+00
  0.00000000E+00  0.00000000E+00  0.00000000E+00
  0.00000000E+00  0.00000000E+00  0.00000000E+00
  0.00000000E+00  0.00000000E+00  0.00000000E+00
  0.00000000E+00  0.00000000E+00  0.00000000E+00
  0.00000000E+00  0.00000000E+00  0.00000000E+00
  0.00000000E+00  0.00000000E+00  0.00000000E+00
  0.00000000E+00  0.00000000E+00  0.00000000E+00
