Ru1Si1Ti1   [ORC,ORC,oP12] (STD_PRIM doi
   1.00000000000000     
     4.0070534713004147   -0.0000000000000000    0.0000000000000000
    -0.0000000000000000    6.2193287142528284    0.0000000000000000
     0.0000000000000000    0.0000000000000000    7.1524670246388924
   4   4   4
Direct
  0.2500000000000000  0.1629608594215503  0.4428799070583441
  0.7500000000000000  0.3370391405784497  0.9428799070583441
  0.7500000000000000  0.8370391405784497  0.5571200929416559
  0.2500000000000000  0.6629608594215503  0.0571200929416559
  0.2500000000000000  0.7804417064352710  0.3813441638425289
  0.7500000000000000  0.7195582935647290  0.8813441638425289
  0.7500000000000000  0.2195582935647289  0.6186558361574711
  0.2500000000000000  0.2804417064352711  0.1186558361574711
  0.2500000000000000  0.0081168735796079  0.8077111767119753
  0.7500000000000000  0.4918831264203921  0.3077111767119753
  0.7500000000000000  0.9918831264203921  0.1922888232880247
  0.2500000000000000  0.5081168735796079  0.6922888232880247
 
  0.00000000E+00  0.00000000E+00  0.00000000E+00
  0.00000000E+00  0.00000000E+00  0.00000000E+00
  0.00000000E+00  0.00000000E+00  0.00000000E+00
  0.00000000E+00  0.00000000E+00  0.00000000E+00
  0.00000000E+00  0.00000000E+00  0.00000000E+00
  0.00000000E+00  0.00000000E+00  0.00000000E+00
  0.00000000E+00  0.00000000E+00  0.00000000E+00
  0.00000000E+00  0.00000000E+00  0.00000000E+00
  0.00000000E+00  0.00000000E+00  0.00000000E+00
  0.00000000E+00  0.00000000E+00  0.00000000E+00
  0.00000000E+00  0.00000000E+00  0.00000000E+00
  0.00000000E+00  0.00000000E+00  0.00000000E+00
