Ge1Pt1Sr1   [CUB,CUB,cP12] (STD_PRIM doi
   1.00000000000000     
     6.6656454991935927   -0.0000000000000000   -0.0000000000000000
    -0.0000000000000000    6.6656454991935927   -0.0000000000000000
    -0.0000000000000000   -0.0000000000000000    6.6656454991935927
   4   4   4
Direct
  0.8346625881529470  0.8346625881529470  0.8346625881529470
  0.6653374118470530  0.1653374118470530  0.3346625881529470
  0.1653374118470530  0.3346625881529470  0.6653374118470530
  0.3346625881529470  0.6653374118470530  0.1653374118470530
  0.4171161957000731  0.4171161957000731  0.4171161957000731
  0.0828838042999269  0.5828838042999269  0.9171161957000731
  0.5828838042999269  0.9171161957000731  0.0828838042999269
  0.9171161957000731  0.0828838042999269  0.5828838042999269
  0.1364912265570929  0.1364912265570929  0.1364912265570929
  0.3635087734429071  0.8635087734429071  0.6364912265570929
  0.8635087734429071  0.6364912265570929  0.3635087734429071
  0.6364912265570929  0.3635087734429071  0.8635087734429071
 
  0.00000000E+00  0.00000000E+00  0.00000000E+00
  0.00000000E+00  0.00000000E+00  0.00000000E+00
  0.00000000E+00  0.00000000E+00  0.00000000E+00
  0.00000000E+00  0.00000000E+00  0.00000000E+00
  0.00000000E+00  0.00000000E+00  0.00000000E+00
  0.00000000E+00  0.00000000E+00  0.00000000E+00
  0.00000000E+00  0.00000000E+00  0.00000000E+00
  0.00000000E+00  0.00000000E+00  0.00000000E+00
  0.00000000E+00  0.00000000E+00  0.00000000E+00
  0.00000000E+00  0.00000000E+00  0.00000000E+00
  0.00000000E+00  0.00000000E+00  0.00000000E+00
  0.00000000E+00  0.00000000E+00  0.00000000E+00
