C1   [HEX,HEX,hP16] (STD_PRIM doi:10.101
   1.00000000000000     
     1.2612403896865265   -2.1845334350472534    0.0000000000000000
     1.2612403896865265    2.1845334350472534   -0.0000000000000000
     0.0000000000000000    0.0000000000000000   16.5576955127731615
  16
Direct
  0.9999961351979383  0.0000038648020617  0.0467075115051049
  0.0000038648020617  0.9999961351979383  0.5467075115051049
  0.0000038648020617  0.9999961351979383  0.9532924884948951
  0.9999961351979383  0.0000038648020617  0.4532924884948952
  0.3333281535562496  0.6666718464437504  0.0778812491058623
  0.6666718464437504  0.3333281535562496  0.5778812491058624
  0.6666718464437504  0.3333281535562496  0.9221187508941376
  0.3333281535562496  0.6666718464437504  0.4221187508941378
  0.3333294733231449  0.6666705266768550  0.1712373863733107
  0.6666705266768550  0.3333294733231449  0.6712373863733107
  0.6666705266768550  0.3333294733231449  0.8287626136266893
  0.3333294733231449  0.6666705266768550  0.3287626136266893
  0.3333361091173880  0.6666638908826120  0.7974042916904938
  0.6666638908826120  0.3333361091173880  0.2974042916904937
  0.6666638908826120  0.3333361091173880  0.2025957083095063
  0.3333361091173880  0.6666638908826120  0.7025957083095062
 
  0.00000000E+00  0.00000000E+00  0.00000000E+00
  0.00000000E+00  0.00000000E+00  0.00000000E+00
  0.00000000E+00  0.00000000E+00  0.00000000E+00
  0.00000000E+00  0.00000000E+00  0.00000000E+00
  0.00000000E+00  0.00000000E+00  0.00000000E+00
  0.00000000E+00  0.00000000E+00  0.00000000E+00
  0.00000000E+00  0.00000000E+00  0.00000000E+00
  0.00000000E+00  0.00000000E+00  0.00000000E+00
  0.00000000E+00  0.00000000E+00  0.00000000E+00
  0.00000000E+00  0.00000000E+00  0.00000000E+00
  0.00000000E+00  0.00000000E+00  0.00000000E+00
  0.00000000E+00  0.00000000E+00  0.00000000E+00
  0.00000000E+00  0.00000000E+00  0.00000000E+00
  0.00000000E+00  0.00000000E+00  0.00000000E+00
  0.00000000E+00  0.00000000E+00  0.00000000E+00
  0.00000000E+00  0.00000000E+00  0.00000000E+00
