Al2Zr1   [HEX,HEX,hP12] (STD_PRIM doi:10
   1.00000000000000     
     2.6519621088600225   -4.5933582478911257    0.0000000000000000
     2.6519621088600225    4.5933582478911257    0.0000000000000000
     0.0000000000000000    0.0000000000000000    8.7727348693769400
   8   4
Direct
  0.0000000000000000  0.0000000000000000  0.0000000000000000
  0.0000000000000000  0.0000000000000000  0.5000000000000000
  0.8291042838550855  0.6582197780876806  0.2500000000000000
  0.3417802219123194  0.1708957161449145  0.2500000000000000
  0.8291064456137258  0.1708935543862742  0.2500000000000000
  0.1708957161449145  0.3417802219123194  0.7500000000000000
  0.6582197780876806  0.8291042838550855  0.7500000000000000
  0.1708935543862742  0.8291064456137258  0.7500000000000000
  0.3333323516315140  0.6666676483684860  0.0642752300369521
  0.6666676483684860  0.3333323516315140  0.5642752300369521
  0.6666676483684860  0.3333323516315140  0.9357247699630479
  0.3333323516315140  0.6666676483684860  0.4357247699630479
 
  0.00000000E+00  0.00000000E+00  0.00000000E+00
  0.00000000E+00  0.00000000E+00  0.00000000E+00
  0.00000000E+00  0.00000000E+00  0.00000000E+00
  0.00000000E+00  0.00000000E+00  0.00000000E+00
  0.00000000E+00  0.00000000E+00  0.00000000E+00
  0.00000000E+00  0.00000000E+00  0.00000000E+00
  0.00000000E+00  0.00000000E+00  0.00000000E+00
  0.00000000E+00  0.00000000E+00  0.00000000E+00
  0.00000000E+00  0.00000000E+00  0.00000000E+00
  0.00000000E+00  0.00000000E+00  0.00000000E+00
  0.00000000E+00  0.00000000E+00  0.00000000E+00
  0.00000000E+00  0.00000000E+00  0.00000000E+00
