Ga1Ge1Li1   [HEX,HEX,hP6] (STD_PRIM doi:
   1.00000000000000     
     2.1061826141116211   -3.6482379133907443    0.0000000000000000
     2.1061826141116211    3.6482379133907443    0.0000000000000000
     0.0000000000000000    0.0000000000000000    6.8163005996162491
   2   2   2
Direct
  0.3333243698446325  0.6666756301553676  0.0573517972516956
  0.6666756301553676  0.3333243698446325  0.5573517972516956
  0.3333457502081009  0.6666542497918991  0.4430512794505558
  0.6666542497918991  0.3333457502081009  0.9430512794505558
  0.9999987535529893  0.0000012464470106  0.2495969232977415
  0.0000012464470106  0.9999987535529893  0.7495969232977416
 
  0.00000000E+00  0.00000000E+00  0.00000000E+00
  0.00000000E+00  0.00000000E+00  0.00000000E+00
  0.00000000E+00  0.00000000E+00  0.00000000E+00
  0.00000000E+00  0.00000000E+00  0.00000000E+00
  0.00000000E+00  0.00000000E+00  0.00000000E+00
  0.00000000E+00  0.00000000E+00  0.00000000E+00
