Rh1Sb1Tb1   [ORC,ORC,oP12] (STD_PRIM doi
   1.00000000000000     
     4.5699851060744647   -0.0000000000000000    0.0000000000000000
    -0.0000000000000000    7.1817387963250505    0.0000000000000000
     0.0000000000000000    0.0000000000000000    7.8403876729574407
   4   4   4
Direct
  0.2500000000000000  0.3052545591385195  0.5817829145485034
  0.7500000000000000  0.1947454408614806  0.0817829145485034
  0.7500000000000000  0.6947454408614804  0.4182170854514965
  0.2500000000000000  0.8052545591385196  0.9182170854514966
  0.2500000000000000  0.1952599250827725  0.9091621487379412
  0.7500000000000000  0.3047400749172275  0.4091621487379410
  0.7500000000000000  0.8047400749172274  0.0908378512620589
  0.2500000000000000  0.6952599250827726  0.5908378512620588
  0.2500000000000000  0.0085657183246588  0.2981342372037450
  0.7500000000000000  0.4914342816753412  0.7981342372037450
  0.7500000000000000  0.9914342816753412  0.7018657627962550
  0.2500000000000000  0.5085657183246588  0.2018657627962550
 
  0.00000000E+00  0.00000000E+00  0.00000000E+00
  0.00000000E+00  0.00000000E+00  0.00000000E+00
  0.00000000E+00  0.00000000E+00  0.00000000E+00
  0.00000000E+00  0.00000000E+00  0.00000000E+00
  0.00000000E+00  0.00000000E+00  0.00000000E+00
  0.00000000E+00  0.00000000E+00  0.00000000E+00
  0.00000000E+00  0.00000000E+00  0.00000000E+00
  0.00000000E+00  0.00000000E+00  0.00000000E+00
  0.00000000E+00  0.00000000E+00  0.00000000E+00
  0.00000000E+00  0.00000000E+00  0.00000000E+00
  0.00000000E+00  0.00000000E+00  0.00000000E+00
  0.00000000E+00  0.00000000E+00  0.00000000E+00
