Au1Mn2   [BCT,BCT2,tI6] (STD_PRIM doi:10
   1.00000000000000     
    -1.7196311779371947    1.7196311779371947    4.6375765409505183
     1.7196311779371947   -1.7196311779371947    4.6375765409505183
     1.7196311779371947    1.7196311779371947   -4.6375765409505183
   1   2
Direct
 -0.0000000000000000 -0.0000000000000000 -0.0000000000000000
  0.6589681802879297  0.6589681802879297  0.0000000000000000
  0.3410318197120703  0.3410318197120703  0.0000000000000000
 
  0.00000000E+00  0.00000000E+00  0.00000000E+00
  0.00000000E+00  0.00000000E+00  0.00000000E+00
  0.00000000E+00  0.00000000E+00  0.00000000E+00
