Cl6K2Tc1   [FCC,FCC,cF36] (STD_PRIM doi:
   1.22474500000000     
     0.0000000000000000    4.1174195588762004    4.1174195588762004
     4.1174195588762004    0.0000000000000000    4.1174195588762004
     4.1174195588762004    4.1174195588762004    0.0000000000000000
   6   2   1
Direct
  0.7633672950199397  0.2366327049800603  0.2366327049800603
  0.2366327049800603  0.7633672950199397  0.7633672950199397
  0.7633672950199397  0.2366327049800603  0.7633672950199397
  0.2366327049800603  0.7633672950199397  0.2366327049800603
  0.7633672950199397  0.7633672950199397  0.2366327049800603
  0.2366327049800603  0.2366327049800603  0.7633672950199397
  0.2500000000000000  0.2500000000000000  0.2500000000000000
  0.7500000000000000  0.7500000000000000  0.7500000000000000
  0.0000000000000000  0.0000000000000000  0.0000000000000000
 
  0.00000000E+00  0.00000000E+00  0.00000000E+00
  0.00000000E+00  0.00000000E+00  0.00000000E+00
  0.00000000E+00  0.00000000E+00  0.00000000E+00
  0.00000000E+00  0.00000000E+00  0.00000000E+00
  0.00000000E+00  0.00000000E+00  0.00000000E+00
  0.00000000E+00  0.00000000E+00  0.00000000E+00
  0.00000000E+00  0.00000000E+00  0.00000000E+00
  0.00000000E+00  0.00000000E+00  0.00000000E+00
  0.00000000E+00  0.00000000E+00  0.00000000E+00
