Al2B2Ru3   [ORCC,ORCC,oS14] (STD_PRIM do
   1.00000000000000     
     1.5219208163365567   -8.8288788267244378    0.0000000000000000
     1.5219208163365567    8.8288788267244378    0.0000000000000000
     0.0000000000000000    0.0000000000000000    2.9328345855436266
   2   2   3
Direct
  0.4206261527837872  0.5793738472162129  0.5000000000000000
  0.5793738472162129  0.4206261527837872  0.5000000000000000
  0.2780192417801758  0.7219807582198241  0.5000000000000000
  0.7219807582198241  0.2780192417801758  0.5000000000000000
  0.0000000000000000  0.0000000000000000  0.0000000000000000
  0.1751904565390410  0.8248095434609590 -0.0000000000000000
  0.8248095434609590  0.1751904565390410  0.0000000000000000
 
  0.00000000E+00  0.00000000E+00  0.00000000E+00
  0.00000000E+00  0.00000000E+00  0.00000000E+00
  0.00000000E+00  0.00000000E+00  0.00000000E+00
  0.00000000E+00  0.00000000E+00  0.00000000E+00
  0.00000000E+00  0.00000000E+00  0.00000000E+00
  0.00000000E+00  0.00000000E+00  0.00000000E+00
  0.00000000E+00  0.00000000E+00  0.00000000E+00
