Ag1In5Te8   [TET,TET,tP14] (STD_PRIM doi
   1.00000000000000     
     6.3093566845246096    0.0000000000000000   -0.0000000000000000
     0.0000000000000000    6.3093566845246096    0.0000000000000000
    -0.0000000000000000    0.0000000000000000   12.8356661967691501
   1   5   8
Direct
  0.0000000000000000  0.0000000000000000  0.5000000000000000
  0.0000000000000000  0.5000000000000000  0.2537916817786079
  0.5000000000000000  0.0000000000000000  0.7462083182213921
 -0.0000000000000000  0.5000000000000000  0.7462083182213921
  0.5000000000000000  0.0000000000000000  0.2537916817786079
  0.5000000000000000  0.5000000000000000  0.0000000000000000
  0.2227488003245376  0.2227488003245376  0.1109873287004151
  0.7772511996754624  0.7772511996754624  0.1109873287004151
  0.2227488003245376  0.7772511996754624  0.8890126712995849
  0.7772511996754624  0.2227488003245376  0.8890126712995849
  0.7262073832078663  0.7262073832078663  0.6151748164198462
  0.2737926167921338  0.2737926167921338  0.6151748164198462
  0.7262073832078663  0.2737926167921338  0.3848251835801539
  0.2737926167921338  0.7262073832078663  0.3848251835801539
 
  0.00000000E+00  0.00000000E+00  0.00000000E+00
  0.00000000E+00  0.00000000E+00  0.00000000E+00
  0.00000000E+00  0.00000000E+00  0.00000000E+00
  0.00000000E+00  0.00000000E+00  0.00000000E+00
  0.00000000E+00  0.00000000E+00  0.00000000E+00
  0.00000000E+00  0.00000000E+00  0.00000000E+00
  0.00000000E+00  0.00000000E+00  0.00000000E+00
  0.00000000E+00  0.00000000E+00  0.00000000E+00
  0.00000000E+00  0.00000000E+00  0.00000000E+00
  0.00000000E+00  0.00000000E+00  0.00000000E+00
  0.00000000E+00  0.00000000E+00  0.00000000E+00
  0.00000000E+00  0.00000000E+00  0.00000000E+00
  0.00000000E+00  0.00000000E+00  0.00000000E+00
  0.00000000E+00  0.00000000E+00  0.00000000E+00
