As1Fe1Nb1   [ORC,ORC,oP12] (STD_PRIM doi
   1.00000000000000     
     3.6141389883746835    0.0000000000000000    0.0000000000000000
     0.0000000000000000    6.4514870277695300    0.0000000000000000
     0.0000000000000000    0.0000000000000000    8.1279506837713527
   4   4   4
Direct
  0.2500000000000000  0.2344978885448933  0.6414565234453283
  0.7500000000000000  0.2655021114551067  0.1414565234453283
  0.7500000000000000  0.7655021114551067  0.3585434765546717
  0.2500000000000000  0.7344978885448933  0.8585434765546717
  0.2500000000000000  0.1226888421035376  0.9468310881471631
  0.7500000000000000  0.3773111578964624  0.4468310881471630
  0.7500000000000000  0.8773111578964624  0.0531689118528370
  0.2500000000000000  0.6226888421035376  0.5531689118528369
  0.2500000000000000  0.0682780030858240  0.3345680760052839
  0.7500000000000000  0.4317219969141760  0.8345680760052839
  0.7500000000000000  0.9317219969141760  0.6654319239947161
  0.2500000000000000  0.5682780030858240  0.1654319239947160
 
  0.00000000E+00  0.00000000E+00  0.00000000E+00
  0.00000000E+00  0.00000000E+00  0.00000000E+00
  0.00000000E+00  0.00000000E+00  0.00000000E+00
  0.00000000E+00  0.00000000E+00  0.00000000E+00
  0.00000000E+00  0.00000000E+00  0.00000000E+00
  0.00000000E+00  0.00000000E+00  0.00000000E+00
  0.00000000E+00  0.00000000E+00  0.00000000E+00
  0.00000000E+00  0.00000000E+00  0.00000000E+00
  0.00000000E+00  0.00000000E+00  0.00000000E+00
  0.00000000E+00  0.00000000E+00  0.00000000E+00
  0.00000000E+00  0.00000000E+00  0.00000000E+00
  0.00000000E+00  0.00000000E+00  0.00000000E+00
