B1N1 #160.2 - (B1N1_ICSD_162871) - B1N1 
   1.00000000000000     
     1.2562501297501929   -2.1759026927501024   -0.0000194605670302
     1.2562501297501929    2.1759026927501024    0.0000194605670302
     0.0000000000000000    0.0000720663270468   12.1632025178975898
   3   3
Direct
 -0.0000167277339671  0.0000167277339670  0.9997433245128604
  0.6666642056888686  0.3333357943111311  0.3330255994593705
  0.3333171881689338  0.6666828118310663  0.6663558541840229
  0.3333032224058614  0.6666967775941387  0.9997316855581097
  0.0000289599595230 -0.0000289599595230  0.3330065429455190
  0.6666364848441182  0.3333635151558818  0.6663369933401222
 
  0.00000000E+00  0.00000000E+00  0.00000000E+00
  0.00000000E+00  0.00000000E+00  0.00000000E+00
  0.00000000E+00  0.00000000E+00  0.00000000E+00
  0.00000000E+00  0.00000000E+00  0.00000000E+00
  0.00000000E+00  0.00000000E+00  0.00000000E+00
  0.00000000E+00  0.00000000E+00  0.00000000E+00
