Ir1S2   [CUB,CUB,cP12] (STD_PRIM doi:10.
   1.00000000000000     
     5.7339907721591876    0.0000000000000000    0.0000000000000000
    -0.0000000000000000    5.7339907721591876   -0.0000000000000000
    -0.0000000000000000   -0.0000000000000000    5.7339907721591876
   4   8
Direct
  0.0000000000000000  0.0000000000000000  0.0000000000000000
  0.5000000000000000  0.0000000000000000  0.5000000000000000
  0.0000000000000000  0.5000000000000000  0.5000000000000000
  0.5000000000000000  0.5000000000000000  0.0000000000000000
  0.3679956643547742  0.3679956643547742  0.3679956643547742
  0.1320043356452259  0.6320043356452258  0.8679956643547742
  0.6320043356452258  0.8679956643547742  0.1320043356452259
  0.8679956643547742  0.1320043356452259  0.6320043356452258
  0.6320043356452258  0.6320043356452258  0.6320043356452258
  0.8679956643547742  0.3679956643547742  0.1320043356452259
  0.3679956643547742  0.1320043356452259  0.8679956643547742
  0.1320043356452259  0.8679956643547742  0.3679956643547742
 
  0.00000000E+00  0.00000000E+00  0.00000000E+00
  0.00000000E+00  0.00000000E+00  0.00000000E+00
  0.00000000E+00  0.00000000E+00  0.00000000E+00
  0.00000000E+00  0.00000000E+00  0.00000000E+00
  0.00000000E+00  0.00000000E+00  0.00000000E+00
  0.00000000E+00  0.00000000E+00  0.00000000E+00
  0.00000000E+00  0.00000000E+00  0.00000000E+00
  0.00000000E+00  0.00000000E+00  0.00000000E+00
  0.00000000E+00  0.00000000E+00  0.00000000E+00
  0.00000000E+00  0.00000000E+00  0.00000000E+00
  0.00000000E+00  0.00000000E+00  0.00000000E+00
  0.00000000E+00  0.00000000E+00  0.00000000E+00
