Bi2O7Ru2   [FCC,FCC,cF88] (STD_PRIM doi:
   1.22474500000000     
    -0.0000000000000000    4.2863304923245948    4.2863304923245948
     4.2863304923245948   -0.0000000000000000    4.2863304923245948
     4.2863304923245948    4.2863304923245948   -0.0000000000000000
   4  14   4
Direct
  0.5000000000000000  0.5000000000000000  0.5000000000000000
  0.0000000000000000  0.5000000000000000  0.0000000000000000
  0.5000000000000000 -0.0000000000000000  0.0000000000000000
  0.5000000000000000  0.5000000000000000  0.0000000000000000
  0.3301753486549365  0.3301753486549365  0.4198246513450635
  0.9198246513450634  0.9198246513450634  0.8301753486549366
  0.3301753486549365  0.9198246513450634  0.4198246513450635
  0.9198246513450634  0.3301753486549365  0.8301753486549366
  0.9198246513450634  0.3301753486549365  0.4198246513450635
  0.3301753486549365  0.9198246513450634  0.8301753486549366
  0.0801753486549366  0.6698246513450634  0.1698246513450634
  0.6698246513450634  0.0801753486549366  0.5801753486549366
  0.0801753486549366  0.0801753486549366  0.1698246513450634
  0.6698246513450634  0.6698246513450634  0.5801753486549366
  0.0801753486549366  0.6698246513450634  0.5801753486549366
  0.6698246513450634  0.0801753486549366  0.1698246513450634
  0.3750000000000000  0.3750000000000000  0.8750000000000000
  0.6250000000000000  0.6250000000000000  0.1250000000000000
 -0.0000000000000000 -0.0000000000000000  0.0000000000000000
  0.5000000000000000 -0.0000000000000000  0.5000000000000000
  0.0000000000000000  0.5000000000000000  0.5000000000000000
 -0.0000000000000000  0.0000000000000000  0.5000000000000000
 
  0.00000000E+00  0.00000000E+00  0.00000000E+00
  0.00000000E+00  0.00000000E+00  0.00000000E+00
  0.00000000E+00  0.00000000E+00  0.00000000E+00
  0.00000000E+00  0.00000000E+00  0.00000000E+00
  0.00000000E+00  0.00000000E+00  0.00000000E+00
  0.00000000E+00  0.00000000E+00  0.00000000E+00
  0.00000000E+00  0.00000000E+00  0.00000000E+00
  0.00000000E+00  0.00000000E+00  0.00000000E+00
  0.00000000E+00  0.00000000E+00  0.00000000E+00
  0.00000000E+00  0.00000000E+00  0.00000000E+00
  0.00000000E+00  0.00000000E+00  0.00000000E+00
  0.00000000E+00  0.00000000E+00  0.00000000E+00
  0.00000000E+00  0.00000000E+00  0.00000000E+00
  0.00000000E+00  0.00000000E+00  0.00000000E+00
  0.00000000E+00  0.00000000E+00  0.00000000E+00
  0.00000000E+00  0.00000000E+00  0.00000000E+00
  0.00000000E+00  0.00000000E+00  0.00000000E+00
  0.00000000E+00  0.00000000E+00  0.00000000E+00
  0.00000000E+00  0.00000000E+00  0.00000000E+00
  0.00000000E+00  0.00000000E+00  0.00000000E+00
  0.00000000E+00  0.00000000E+00  0.00000000E+00
  0.00000000E+00  0.00000000E+00  0.00000000E+00
