C2U1   [FCC,FCC,cF12] (STD_PRIM doi:10.1
   1.22474500000000     
    -0.0000000000000000    2.2209400698580994    2.2209400698580994
     2.2209400698580994    0.0000000000000000    2.2209400698580994
     2.2209400698580994    2.2209400698580994   -0.0000000000000000
   2   1
Direct
  0.7500000000000000  0.7500000000000000  0.7500000000000000
  0.2500000000000000  0.2500000000000000  0.2500000000000000
  0.0000000000000000  0.0000000000000000 -0.0000000000000000
 
  0.00000000E+00  0.00000000E+00  0.00000000E+00
  0.00000000E+00  0.00000000E+00  0.00000000E+00
  0.00000000E+00  0.00000000E+00  0.00000000E+00
