K1Na1Te1   [ORC,ORC,oP12] (STD_PRIM doi:
   1.00000000000000     
     5.1501576180053936    0.0000000000000000    0.0000000000000000
     0.0000000000000000    8.6016935275427695    0.0000000000000000
     0.0000000000000000    0.0000000000000000    9.3589129833370830
   4   4   4
Direct
  0.2500000000000000  0.0129200303285594  0.8143897182524708
  0.7500000000000000  0.4870799696714406  0.3143897182524708
  0.7500000000000000  0.9870799696714405  0.1856102817475292
  0.2500000000000000  0.5129200303285595  0.6856102817475292
  0.2500000000000000  0.1468426463684867  0.4259834833273570
  0.7500000000000000  0.3531573536315133  0.9259834833273571
  0.7500000000000000  0.8531573536315133  0.5740165166726429
  0.2500000000000000  0.6468426463684867  0.0740165166726429
  0.2500000000000000  0.2769762235448249  0.1069519961289280
  0.7500000000000000  0.2230237764551751  0.6069519961289280
  0.7500000000000000  0.7230237764551751  0.8930480038710720
  0.2500000000000000  0.7769762235448249  0.3930480038710720
 
  0.00000000E+00  0.00000000E+00  0.00000000E+00
  0.00000000E+00  0.00000000E+00  0.00000000E+00
  0.00000000E+00  0.00000000E+00  0.00000000E+00
  0.00000000E+00  0.00000000E+00  0.00000000E+00
  0.00000000E+00  0.00000000E+00  0.00000000E+00
  0.00000000E+00  0.00000000E+00  0.00000000E+00
  0.00000000E+00  0.00000000E+00  0.00000000E+00
  0.00000000E+00  0.00000000E+00  0.00000000E+00
  0.00000000E+00  0.00000000E+00  0.00000000E+00
  0.00000000E+00  0.00000000E+00  0.00000000E+00
  0.00000000E+00  0.00000000E+00  0.00000000E+00
  0.00000000E+00  0.00000000E+00  0.00000000E+00
