Ag1Dy1Pb1   [HEX,HEX,hP6] (STD_PRIM doi:
   1.00000000000000     
     2.4164604396248568   -4.1853778710374598    0.0000000000000000
     2.4164604396248568    4.1853778710374598    0.0000000000000000
     0.0000000000000000    0.0000000000000000    7.4659524049579948
   2   2   2
Direct
  0.3333292880092585  0.6666707119907416  0.8178953616706257
  0.6666707119907416  0.3333292880092585  0.3178953616706257
  0.9999974636874844  0.0000025363125155  0.0064078452406772
  0.0000025363125155  0.9999974636874844  0.5064078452406773
  0.3333511652943625  0.6666488347056375  0.2271967930887014
  0.6666488347056375  0.3333511652943625  0.7271967930887013
 
  0.00000000E+00  0.00000000E+00  0.00000000E+00
  0.00000000E+00  0.00000000E+00  0.00000000E+00
  0.00000000E+00  0.00000000E+00  0.00000000E+00
  0.00000000E+00  0.00000000E+00  0.00000000E+00
  0.00000000E+00  0.00000000E+00  0.00000000E+00
  0.00000000E+00  0.00000000E+00  0.00000000E+00
