Ni1Sb1Se1   [CUB,CUB,cP12] (STD_PRIM doi
   1.00000000000000     
     6.1080740073280317    0.0000000000000000    0.0000000000000000
     0.0000000000000000    6.1080740073280317   -0.0000000000000000
    -0.0000000000000000    0.0000000000000000    6.1080740073280317
   4   4   4
Direct
  0.0095398314661319  0.0095398314661319  0.0095398314661319
  0.4904601685338681  0.9904601685338682  0.5095398314661318
  0.9904601685338682  0.5095398314661318  0.4904601685338681
  0.5095398314661318  0.4904601685338681  0.9904601685338682
  0.3689147700436531  0.3689147700436531  0.3689147700436531
  0.1310852299563469  0.6310852299563467  0.8689147700436533
  0.6310852299563467  0.8689147700436533  0.1310852299563469
  0.8689147700436533  0.1310852299563469  0.6310852299563467
  0.6247331060936803  0.6247331060936803  0.6247331060936803
  0.8752668939063197  0.3752668939063197  0.1247331060936803
  0.3752668939063197  0.1247331060936803  0.8752668939063197
  0.1247331060936803  0.8752668939063197  0.3752668939063197
 
  0.00000000E+00  0.00000000E+00  0.00000000E+00
  0.00000000E+00  0.00000000E+00  0.00000000E+00
  0.00000000E+00  0.00000000E+00  0.00000000E+00
  0.00000000E+00  0.00000000E+00  0.00000000E+00
  0.00000000E+00  0.00000000E+00  0.00000000E+00
  0.00000000E+00  0.00000000E+00  0.00000000E+00
  0.00000000E+00  0.00000000E+00  0.00000000E+00
  0.00000000E+00  0.00000000E+00  0.00000000E+00
  0.00000000E+00  0.00000000E+00  0.00000000E+00
  0.00000000E+00  0.00000000E+00  0.00000000E+00
  0.00000000E+00  0.00000000E+00  0.00000000E+00
  0.00000000E+00  0.00000000E+00  0.00000000E+00
