S3Sn1Sr1   [ORC,ORC,oP20] (STD_PRIM doi:
   1.00000000000000     
     3.9608440871635198    0.0000000000000000    0.0000000000000000
     0.0000000000000000    8.3081726827179700    0.0000000000000000
     0.0000000000000000    0.0000000000000000   14.4259089373623723
  12   4   4
Direct
  0.7500000000000000  0.9722106261753375  0.8940735793886232
  0.2500000000000000  0.5277893738246625  0.3940735793886232
  0.2500000000000000  0.0277893738246625  0.1059264206113768
  0.7500000000000000  0.4722106261753375  0.6059264206113768
  0.7500000000000000  0.3555782466775164  0.0034926052719778
  0.2500000000000000  0.1444217533224836  0.5034926052719778
  0.2500000000000000  0.6444217533224836  0.9965073947280222
  0.7500000000000000  0.8555782466775164  0.4965073947280222
  0.2500000000000000  0.3024707177154695  0.7821678985360824
  0.7500000000000000  0.1975292822845305  0.2821678985360824
  0.7500000000000000  0.6975292822845305  0.2178321014639176
  0.2500000000000000  0.8024707177154695  0.7178321014639176
  0.2500000000000000  0.1753410499275610  0.9405700566151484
  0.7500000000000000  0.3246589500724391  0.4405700566151483
  0.7500000000000000  0.8246589500724391  0.0594299433848517
  0.2500000000000000  0.6753410499275609  0.5594299433848516
  0.7500000000000000  0.5799642763308196  0.8220801454659523
  0.2500000000000000  0.9200357236691804  0.3220801454659524
  0.2500000000000000  0.4200357236691804  0.1779198545340477
  0.7500000000000000  0.0799642763308196  0.6779198545340477
 
  0.00000000E+00  0.00000000E+00  0.00000000E+00
  0.00000000E+00  0.00000000E+00  0.00000000E+00
  0.00000000E+00  0.00000000E+00  0.00000000E+00
  0.00000000E+00  0.00000000E+00  0.00000000E+00
  0.00000000E+00  0.00000000E+00  0.00000000E+00
  0.00000000E+00  0.00000000E+00  0.00000000E+00
  0.00000000E+00  0.00000000E+00  0.00000000E+00
  0.00000000E+00  0.00000000E+00  0.00000000E+00
  0.00000000E+00  0.00000000E+00  0.00000000E+00
  0.00000000E+00  0.00000000E+00  0.00000000E+00
  0.00000000E+00  0.00000000E+00  0.00000000E+00
  0.00000000E+00  0.00000000E+00  0.00000000E+00
  0.00000000E+00  0.00000000E+00  0.00000000E+00
  0.00000000E+00  0.00000000E+00  0.00000000E+00
  0.00000000E+00  0.00000000E+00  0.00000000E+00
  0.00000000E+00  0.00000000E+00  0.00000000E+00
  0.00000000E+00  0.00000000E+00  0.00000000E+00
  0.00000000E+00  0.00000000E+00  0.00000000E+00
  0.00000000E+00  0.00000000E+00  0.00000000E+00
  0.00000000E+00  0.00000000E+00  0.00000000E+00
