S1Ti1   [HEX,HEX,hP2] (STD_PRIM doi:10.1
   1.00000000000000     
     1.6578138384777970   -2.8715304886827093    0.0000000000000000
     1.6578138384777970    2.8715304886827093    0.0000000000000000
     0.0000000000000000    0.0000000000000000    3.2649233865655019
   1   1
Direct
  0.3333119737272881  0.6666880262727118  0.5000000000000000
  0.9999880262727131  0.0000119737272869  0.0000000000000000
 
  0.00000000E+00  0.00000000E+00  0.00000000E+00
  0.00000000E+00  0.00000000E+00  0.00000000E+00
