Fe2S6Ta9   [HEX,HEX,hP17] (STD_PRIM doi:
   1.00000000000000     
     5.2037614015227067   -9.0124594357661412    0.0000000000000000
     5.2037614015227067    9.0124594357661412    0.0000000000000000
     0.0000000000000000    0.0000000000000000    3.3848372190383285
   2   6   9
Direct
  0.3333401462173500  0.6666737078224824  0.0000000000000000
  0.6666737078224824  0.3333401462173500  0.0000000000000000
  0.2751503506633888  0.0000035297858064  0.5000000000000000
  0.0000035297858064  0.2751503506633888  0.5000000000000000
  0.7248456689940735  0.7248456689940735  0.5000000000000000
  0.7087253668360762  0.9999875049963114  0.0000000000000000
  0.9999875049963114  0.7087253668360762  0.0000000000000000
  0.2912833725787444  0.2912833725787444  0.0000000000000000
  0.4575896950967872  0.0000011113431871  0.0000000000000000
  0.0000011113431871  0.4575896950967872  0.0000000000000000
  0.5424076881721303  0.5424076881721303  0.0000000000000000
  0.1931842598853747  0.7360098712998741  0.5000000000000000
  0.2640017228186168  0.4571999697868633  0.5000000000000000
  0.5428016924767731  0.8067943412261530  0.5000000000000000
  0.7360098712998741  0.1931842598853747  0.5000000000000000
  0.4571999697868633  0.2640017228186168  0.5000000000000000
  0.8067943412261530  0.5428016924767731  0.5000000000000000
 
  0.00000000E+00  0.00000000E+00  0.00000000E+00
  0.00000000E+00  0.00000000E+00  0.00000000E+00
  0.00000000E+00  0.00000000E+00  0.00000000E+00
  0.00000000E+00  0.00000000E+00  0.00000000E+00
  0.00000000E+00  0.00000000E+00  0.00000000E+00
  0.00000000E+00  0.00000000E+00  0.00000000E+00
  0.00000000E+00  0.00000000E+00  0.00000000E+00
  0.00000000E+00  0.00000000E+00  0.00000000E+00
  0.00000000E+00  0.00000000E+00  0.00000000E+00
  0.00000000E+00  0.00000000E+00  0.00000000E+00
  0.00000000E+00  0.00000000E+00  0.00000000E+00
  0.00000000E+00  0.00000000E+00  0.00000000E+00
  0.00000000E+00  0.00000000E+00  0.00000000E+00
  0.00000000E+00  0.00000000E+00  0.00000000E+00
  0.00000000E+00  0.00000000E+00  0.00000000E+00
  0.00000000E+00  0.00000000E+00  0.00000000E+00
  0.00000000E+00  0.00000000E+00  0.00000000E+00
