Al2Zr1   [HEX,HEX,hP12] (STD_PRIM doi:10
   1.00000000000000     
     2.6489606379147599   -4.5881344121184302    0.0000000000000000
     2.6489552616962677    4.5881313081572355    0.0000000000000000
     0.0000000000000000    0.0000000000000000    8.7891003953316336
   8   4
Direct
  0.6584765739169638  0.8292430028333393  0.2500000000000000
  0.1707664289163754  0.8292430028333393  0.2500000000000000
  0.1707637896078659  0.3415275792157317  0.2500000000000000
  0.3415234260830362  0.1707569971666607  0.7500000000000000
  0.8292335710836246  0.1707569971666607  0.7500000000000000
  0.8292362103921341  0.6584724207842683  0.7500000000000000
 -0.0000000000000000 -0.0000000000000000 -0.0000000000000000
  0.0000000000000000  0.0000000000000000  0.5000000000000000
  0.6666785874537582  0.3333571749075235  0.0637073804610811
  0.3333214125462418  0.6666428250924765  0.5637073804610810
  0.3333214125462418  0.6666428250924765  0.9362926195389190
  0.6666785874537582  0.3333571749075235  0.4362926195389189
 
  0.00000000E+00  0.00000000E+00  0.00000000E+00
  0.00000000E+00  0.00000000E+00  0.00000000E+00
  0.00000000E+00  0.00000000E+00  0.00000000E+00
  0.00000000E+00  0.00000000E+00  0.00000000E+00
  0.00000000E+00  0.00000000E+00  0.00000000E+00
  0.00000000E+00  0.00000000E+00  0.00000000E+00
  0.00000000E+00  0.00000000E+00  0.00000000E+00
  0.00000000E+00  0.00000000E+00  0.00000000E+00
  0.00000000E+00  0.00000000E+00  0.00000000E+00
  0.00000000E+00  0.00000000E+00  0.00000000E+00
  0.00000000E+00  0.00000000E+00  0.00000000E+00
  0.00000000E+00  0.00000000E+00  0.00000000E+00
