Ba1Ir1P1   [CUB,CUB,cP12] (STD_PRIM doi:
   1.00000000000000     
     6.5149063591731720   -0.0000000000000000   -0.0000000000000000
    -0.0000000000000000    6.5149063591731720   -0.0000000000000000
    -0.0000000000000000   -0.0000000000000000    6.5149063591731720
   4   4   4
Direct
  0.1281406022238142  0.1281406022238142  0.1281406022238142
  0.3718593977761858  0.8718593977761858  0.6281406022238142
  0.8718593977761858  0.6281406022238142  0.3718593977761858
  0.6281406022238142  0.3718593977761858  0.8718593977761858
  0.4030965211445424  0.4030965211445424  0.4030965211445424
  0.0969034788554576  0.5969034788554576  0.9030965211445424
  0.5969034788554576  0.9030965211445424  0.0969034788554576
  0.9030965211445424  0.0969034788554576  0.5969034788554576
  0.8464216896786040  0.8464216896786040  0.8464216896786040
  0.6535783103213960  0.1535783103213960  0.3464216896786040
  0.1535783103213960  0.3464216896786040  0.6535783103213960
  0.3464216896786040  0.6535783103213960  0.1535783103213960
 
  0.00000000E+00  0.00000000E+00  0.00000000E+00
  0.00000000E+00  0.00000000E+00  0.00000000E+00
  0.00000000E+00  0.00000000E+00  0.00000000E+00
  0.00000000E+00  0.00000000E+00  0.00000000E+00
  0.00000000E+00  0.00000000E+00  0.00000000E+00
  0.00000000E+00  0.00000000E+00  0.00000000E+00
  0.00000000E+00  0.00000000E+00  0.00000000E+00
  0.00000000E+00  0.00000000E+00  0.00000000E+00
  0.00000000E+00  0.00000000E+00  0.00000000E+00
  0.00000000E+00  0.00000000E+00  0.00000000E+00
  0.00000000E+00  0.00000000E+00  0.00000000E+00
  0.00000000E+00  0.00000000E+00  0.00000000E+00
