Pd3S1   [ORCC,ORCC,oS16] (STD_PRIM doi:1
   1.00000000000000     
     2.7026662334840212   -3.7421925734252697    0.0000000000000000
     2.7026662334840212    3.7421925734252697    0.0000000000000000
     0.0000000000000000    0.0000000000000000    6.2895528693948668
   6   2
Direct
  0.9989190688343831  0.0010809311656169  0.0000000000000000
  0.9989190688343831  0.0010809311656169  0.5000000000000000
  0.8440526437294752  0.4559784764683701  0.2500000000000000
  0.5440215235316300  0.1559473562705248  0.7500000000000000
  0.4530577607291607  0.8473374795846422  0.2500000000000000
  0.1526625204153577  0.5469422392708394  0.7500000000000000
  0.3110064566178966  0.3134390426922894  0.2500000000000000
  0.6865609573077106  0.6889935433821035  0.7500000000000000
 
  0.00000000E+00  0.00000000E+00  0.00000000E+00
  0.00000000E+00  0.00000000E+00  0.00000000E+00
  0.00000000E+00  0.00000000E+00  0.00000000E+00
  0.00000000E+00  0.00000000E+00  0.00000000E+00
  0.00000000E+00  0.00000000E+00  0.00000000E+00
  0.00000000E+00  0.00000000E+00  0.00000000E+00
  0.00000000E+00  0.00000000E+00  0.00000000E+00
  0.00000000E+00  0.00000000E+00  0.00000000E+00
