Fe1H6Mg2   [FCC,FCC,cF36] (STD_PRIM doi:
   1.22474500000000     
    -0.0000000000000000    2.5939124626849517    2.5939124626849517
     2.5939124626849517    0.0000000000000000    2.5939124626849517
     2.5939124626849517    2.5939124626849517   -0.0000000000000000
   1   6   2
Direct
  0.0000000000000000  0.0000000000000000 -0.0000000000000000
  0.7526628668081339  0.2473371331918662  0.7526628668081339
  0.2473371331918662  0.7526628668081339  0.2473371331918662
  0.2473371331918662  0.7526628668081339  0.7526628668081339
  0.7526628668081339  0.2473371331918662  0.2473371331918662
  0.7526628668081339  0.7526628668081339  0.2473371331918662
  0.2473371331918662  0.2473371331918662  0.7526628668081339
  0.7500000000000000  0.7500000000000000  0.7500000000000000
  0.2500000000000000  0.2500000000000000  0.2500000000000000
 
  0.00000000E+00  0.00000000E+00  0.00000000E+00
  0.00000000E+00  0.00000000E+00  0.00000000E+00
  0.00000000E+00  0.00000000E+00  0.00000000E+00
  0.00000000E+00  0.00000000E+00  0.00000000E+00
  0.00000000E+00  0.00000000E+00  0.00000000E+00
  0.00000000E+00  0.00000000E+00  0.00000000E+00
  0.00000000E+00  0.00000000E+00  0.00000000E+00
  0.00000000E+00  0.00000000E+00  0.00000000E+00
  0.00000000E+00  0.00000000E+00  0.00000000E+00
