F4K2Mg1   [BCT,BCT2,tI14] (STD_PRIM doi:
   1.00000000000000     
    -2.0165940215194382    2.0165940215194382    6.6652157222340609
     2.0165940215194382   -2.0165940215194382    6.6652157222340609
     2.0165940215194382    2.0165940215194382   -6.6652157222340609
   4   2   1
Direct
  0.1521934906150394  0.1521934906150394 -0.0000000000000000
  0.8478065093849606  0.8478065093849606 -0.0000000000000000
  0.0000000000000000  0.5000000000000000  0.5000000000000000
  0.5000000000000000  0.0000000000000000  0.5000000000000000
  0.3517368947351296  0.3517368947351296  0.0000000000000000
  0.6482631052648704  0.6482631052648704 -0.0000000000000000
  0.0000000000000000  0.0000000000000000  0.0000000000000000
 
  0.00000000E+00  0.00000000E+00  0.00000000E+00
  0.00000000E+00  0.00000000E+00  0.00000000E+00
  0.00000000E+00  0.00000000E+00  0.00000000E+00
  0.00000000E+00  0.00000000E+00  0.00000000E+00
  0.00000000E+00  0.00000000E+00  0.00000000E+00
  0.00000000E+00  0.00000000E+00  0.00000000E+00
  0.00000000E+00  0.00000000E+00  0.00000000E+00
