Ir5Sn7   [BCT,BCT1,tI24] (STD_PRIM doi:1
   1.00000000000000     
    -4.3517656499496056    4.3517656499496056    3.2839879942185894
     4.3517656499496056   -4.3517656499496056    3.2839879942185894
     4.3517656499496056    4.3517656499496056   -3.2839879942185894
   5   7
Direct
  0.4987869955510880  0.4987869955510880  0.0000000000000000
  0.1771596482711355  0.9344365987797491  0.7572769505086137
  0.1771596482711355  0.4198826977625289  0.2427230494913864
  0.9344365987797491  0.1771596482711355  0.7572769505086137
  0.4198826977625289  0.1771596482711355  0.2427230494913864
  0.9019653851673537  0.9019653851673537  0.0000000000000000
  0.4139194935603338  0.9139194935603338  0.5000000000000000
  0.9139194935603338  0.4139194935603338  0.5000000000000000
  0.7262377413312837  0.7262377413312837  0.4280904631243978
  0.2981472782068930  0.2981472782068930  0.5719095368756022
  0.7262377413312837  0.2981472782068930 -0.0000000000000000
  0.2981472782068930  0.7262377413312837 -0.0000000000000000
 
  0.00000000E+00  0.00000000E+00  0.00000000E+00
  0.00000000E+00  0.00000000E+00  0.00000000E+00
  0.00000000E+00  0.00000000E+00  0.00000000E+00
  0.00000000E+00  0.00000000E+00  0.00000000E+00
  0.00000000E+00  0.00000000E+00  0.00000000E+00
  0.00000000E+00  0.00000000E+00  0.00000000E+00
  0.00000000E+00  0.00000000E+00  0.00000000E+00
  0.00000000E+00  0.00000000E+00  0.00000000E+00
  0.00000000E+00  0.00000000E+00  0.00000000E+00
  0.00000000E+00  0.00000000E+00  0.00000000E+00
  0.00000000E+00  0.00000000E+00  0.00000000E+00
  0.00000000E+00  0.00000000E+00  0.00000000E+00
