Cd1Dy2Ge2   [TET,TET,tP10] (STD_PRIM doi
   1.00000000000000     
     7.3176126640433727    0.0000000000000000    0.0000000000000000
     0.0000000000000000    7.3176126640433727    0.0000000000000000
     0.0000000000000000   -0.0000000000000000    4.1968270161266599
   2   4   4
Direct
  0.0000000000000000  0.0000000000000000  0.0000000000000000
  0.5000000000000000  0.5000000000000000  0.0000000000000000
  0.1777648802018973  0.6777648802018973  0.5000000000000000
  0.8222351197981027  0.3222351197981027  0.5000000000000000
  0.3222351197981027  0.1777648802018973  0.5000000000000000
  0.6777648802018973  0.8222351197981027  0.5000000000000000
  0.6222730281520543  0.1222730281520543 -0.0000000000000000
  0.3777269718479457  0.8777269718479457  0.0000000000000000
  0.8777269718479457  0.6222730281520543 -0.0000000000000000
  0.1222730281520543  0.3777269718479457  0.0000000000000000
 
  0.00000000E+00  0.00000000E+00  0.00000000E+00
  0.00000000E+00  0.00000000E+00  0.00000000E+00
  0.00000000E+00  0.00000000E+00  0.00000000E+00
  0.00000000E+00  0.00000000E+00  0.00000000E+00
  0.00000000E+00  0.00000000E+00  0.00000000E+00
  0.00000000E+00  0.00000000E+00  0.00000000E+00
  0.00000000E+00  0.00000000E+00  0.00000000E+00
  0.00000000E+00  0.00000000E+00  0.00000000E+00
  0.00000000E+00  0.00000000E+00  0.00000000E+00
  0.00000000E+00  0.00000000E+00  0.00000000E+00
