As2Ba1Zn2   [ORC,ORC,oP20] (STD_PRIM doi
   1.00000000000000     
     4.2654050607438414    0.0000000000000000    0.0000000000000000
     0.0000000000000000   10.0648190769782797    0.0000000000000000
     0.0000000000000000    0.0000000000000000   10.9385698315158741
   8   4   8
Direct
  0.2500000000000000  0.4792538500886491  0.8392643934689514
  0.7500000000000000  0.0207461499113509  0.3392643934689514
  0.7500000000000000  0.5207461499113509  0.1607356065310486
  0.2500000000000000  0.9792538500886491  0.6607356065310486
  0.2500000000000000  0.3488829921296574  0.4611347492878863
  0.7500000000000000  0.1511170078703426  0.9611347492878791
  0.7500000000000000  0.6511170078703427  0.5388652507121209
  0.2500000000000000  0.8488829921296573  0.0388652507121208
  0.2500000000000000  0.2465482654414730  0.1753305801542790
  0.7500000000000000  0.2534517345585269  0.6753305801542789
  0.7500000000000000  0.7534517345585270  0.8246694198457211
  0.2500000000000000  0.7465482654414730  0.3246694198457211
  0.2500000000000000  0.0487203965562778  0.8852961207748987
  0.7500000000000000  0.4512796034437223  0.3852961207748987
  0.7500000000000000  0.9512796034437222  0.1147038792251013
  0.2500000000000000  0.5487203965562778  0.6147038792251013
  0.2500000000000000  0.0962081922682365  0.4508042171807672
  0.7500000000000000  0.4037918077317634  0.9508042171807672
  0.7500000000000000  0.9037918077317635  0.5491957828192328
  0.2500000000000000  0.5962081922682365  0.0491957828192328
 
  0.00000000E+00  0.00000000E+00  0.00000000E+00
  0.00000000E+00  0.00000000E+00  0.00000000E+00
  0.00000000E+00  0.00000000E+00  0.00000000E+00
  0.00000000E+00  0.00000000E+00  0.00000000E+00
  0.00000000E+00  0.00000000E+00  0.00000000E+00
  0.00000000E+00  0.00000000E+00  0.00000000E+00
  0.00000000E+00  0.00000000E+00  0.00000000E+00
  0.00000000E+00  0.00000000E+00  0.00000000E+00
  0.00000000E+00  0.00000000E+00  0.00000000E+00
  0.00000000E+00  0.00000000E+00  0.00000000E+00
  0.00000000E+00  0.00000000E+00  0.00000000E+00
  0.00000000E+00  0.00000000E+00  0.00000000E+00
  0.00000000E+00  0.00000000E+00  0.00000000E+00
  0.00000000E+00  0.00000000E+00  0.00000000E+00
  0.00000000E+00  0.00000000E+00  0.00000000E+00
  0.00000000E+00  0.00000000E+00  0.00000000E+00
  0.00000000E+00  0.00000000E+00  0.00000000E+00
  0.00000000E+00  0.00000000E+00  0.00000000E+00
  0.00000000E+00  0.00000000E+00  0.00000000E+00
  0.00000000E+00  0.00000000E+00  0.00000000E+00
