Be13Ca1   [FCC,FCC,cF112] (STD_PRIM doi:
   1.22474500000000     
    -0.0000000000000000    4.1809252454796546    4.1809252454796546
     4.1809252454796546    0.0000000000000000    4.1809252454796546
     4.1809252454796546    4.1809252454796546   -0.0000000000000000
  26   2
Direct
  0.0000000000000000 -0.0000000000000000  0.0000000000000000
  0.5000000000000000  0.5000000000000000  0.5000000000000000
  0.0646830708713787  0.7112952952246979  0.9353169291286212
  0.7112952952246979  0.0646830708713787  0.2887047047753021
  0.2887047047753021  0.9353169291286212  0.7112952952246979
  0.9353169291286212  0.2887047047753021  0.0646830708713787
  0.7112952952246979  0.9353169291286212  0.0646830708713787
  0.0646830708713787  0.2887047047753021  0.7112952952246979
  0.9353169291286212  0.7112952952246979  0.2887047047753021
  0.2887047047753021  0.0646830708713787  0.9353169291286212
  0.9353169291286212  0.0646830708713787  0.7112952952246979
  0.2887047047753021  0.7112952952246979  0.0646830708713787
  0.7112952952246979  0.2887047047753021  0.9353169291286212
  0.0646830708713787  0.9353169291286212  0.2887047047753021
  0.4353169291286212  0.7887047047753021  0.2112952952246979
  0.7887047047753021  0.4353169291286212  0.5646830708713788
  0.2112952952246979  0.5646830708713788  0.4353169291286212
  0.5646830708713788  0.2112952952246979  0.7887047047753021
  0.7887047047753021  0.5646830708713788  0.2112952952246979
  0.4353169291286212  0.2112952952246979  0.5646830708713788
  0.5646830708713788  0.7887047047753021  0.4353169291286212
  0.2112952952246979  0.4353169291286212  0.7887047047753021
  0.5646830708713788  0.4353169291286212  0.2112952952246979
  0.2112952952246979  0.7887047047753021  0.5646830708713788
  0.7887047047753021  0.2112952952246979  0.4353169291286212
  0.4353169291286212  0.5646830708713788  0.7887047047753021
  0.7500000000000000  0.7500000000000000  0.7500000000000000
  0.2500000000000000  0.2500000000000000  0.2500000000000000
 
  0.00000000E+00  0.00000000E+00  0.00000000E+00
  0.00000000E+00  0.00000000E+00  0.00000000E+00
  0.00000000E+00  0.00000000E+00  0.00000000E+00
  0.00000000E+00  0.00000000E+00  0.00000000E+00
  0.00000000E+00  0.00000000E+00  0.00000000E+00
  0.00000000E+00  0.00000000E+00  0.00000000E+00
  0.00000000E+00  0.00000000E+00  0.00000000E+00
  0.00000000E+00  0.00000000E+00  0.00000000E+00
  0.00000000E+00  0.00000000E+00  0.00000000E+00
  0.00000000E+00  0.00000000E+00  0.00000000E+00
  0.00000000E+00  0.00000000E+00  0.00000000E+00
  0.00000000E+00  0.00000000E+00  0.00000000E+00
  0.00000000E+00  0.00000000E+00  0.00000000E+00
  0.00000000E+00  0.00000000E+00  0.00000000E+00
  0.00000000E+00  0.00000000E+00  0.00000000E+00
  0.00000000E+00  0.00000000E+00  0.00000000E+00
  0.00000000E+00  0.00000000E+00  0.00000000E+00
  0.00000000E+00  0.00000000E+00  0.00000000E+00
  0.00000000E+00  0.00000000E+00  0.00000000E+00
  0.00000000E+00  0.00000000E+00  0.00000000E+00
  0.00000000E+00  0.00000000E+00  0.00000000E+00
  0.00000000E+00  0.00000000E+00  0.00000000E+00
  0.00000000E+00  0.00000000E+00  0.00000000E+00
  0.00000000E+00  0.00000000E+00  0.00000000E+00
  0.00000000E+00  0.00000000E+00  0.00000000E+00
  0.00000000E+00  0.00000000E+00  0.00000000E+00
  0.00000000E+00  0.00000000E+00  0.00000000E+00
  0.00000000E+00  0.00000000E+00  0.00000000E+00
