Ge2Th3   [TET,TET,tP10] (STD_PRIM doi:10
   1.00000000000000     
     8.1432414310095727    0.0000000000000000    0.0000000000000000
     0.0000000000000000    8.1432414310095727    0.0000000000000000
     0.0000000000000000    0.0000000000000000    4.2598719683173343
   4   6
Direct
  0.3807017840926435  0.8807017840926434 -0.0000000000000000
  0.6192982159073566  0.1192982159073565  0.0000000000000000
  0.1192982159073565  0.3807017840926435 -0.0000000000000000
  0.8807017840926434  0.6192982159073566  0.0000000000000000
  0.0000000000000000  0.0000000000000000  0.0000000000000000
  0.5000000000000000  0.5000000000000000  0.0000000000000000
  0.1770513906633358  0.6770513906633358  0.5000000000000000
  0.8229486093366642  0.3229486093366642  0.5000000000000000
  0.3229486093366642  0.1770513906633358  0.5000000000000000
  0.6770513906633358  0.8229486093366642  0.5000000000000000
 
  0.00000000E+00  0.00000000E+00  0.00000000E+00
  0.00000000E+00  0.00000000E+00  0.00000000E+00
  0.00000000E+00  0.00000000E+00  0.00000000E+00
  0.00000000E+00  0.00000000E+00  0.00000000E+00
  0.00000000E+00  0.00000000E+00  0.00000000E+00
  0.00000000E+00  0.00000000E+00  0.00000000E+00
  0.00000000E+00  0.00000000E+00  0.00000000E+00
  0.00000000E+00  0.00000000E+00  0.00000000E+00
  0.00000000E+00  0.00000000E+00  0.00000000E+00
  0.00000000E+00  0.00000000E+00  0.00000000E+00
