Au1Ho2   [ORC,ORC,oP12] (STD_PRIM doi:10
   1.00000000000000     
     4.9553457751619696    0.0000000000000000    0.0000000000000000
     0.0000000000000000    7.0479300414411501    0.0000000000000000
     0.0000000000000000    0.0000000000000000    8.9012544628983221
   4   8
Direct
  0.2500000000000000  0.2601069682012457  0.8994893832121710
  0.7500000000000000  0.2398930317987543  0.3994893832121711
  0.7500000000000000  0.7398930317987543  0.1005106167878290
  0.2500000000000000  0.7601069682012457  0.6005106167878290
  0.2500000000000000  0.8525294310139886  0.9191119923704604
  0.7500000000000000  0.6474705689860114  0.4191119923704604
  0.7500000000000000  0.1474705689860114  0.0808880076295396
  0.2500000000000000  0.3525294310139885  0.5808880076295396
  0.2500000000000000  0.4849117180822602  0.1769446516792572
  0.7500000000000000  0.0150882819177398  0.6769446516792571
  0.7500000000000000  0.5150882819177397  0.8230553483207429
  0.2500000000000000  0.9849117180822603  0.3230553483207429
 
  0.00000000E+00  0.00000000E+00  0.00000000E+00
  0.00000000E+00  0.00000000E+00  0.00000000E+00
  0.00000000E+00  0.00000000E+00  0.00000000E+00
  0.00000000E+00  0.00000000E+00  0.00000000E+00
  0.00000000E+00  0.00000000E+00  0.00000000E+00
  0.00000000E+00  0.00000000E+00  0.00000000E+00
  0.00000000E+00  0.00000000E+00  0.00000000E+00
  0.00000000E+00  0.00000000E+00  0.00000000E+00
  0.00000000E+00  0.00000000E+00  0.00000000E+00
  0.00000000E+00  0.00000000E+00  0.00000000E+00
  0.00000000E+00  0.00000000E+00  0.00000000E+00
  0.00000000E+00  0.00000000E+00  0.00000000E+00
