Ge1Rh1Zr1   [ORC,ORC,oP12] (STD_PRIM doi
   1.00000000000000     
     4.0142198782674745    0.0000000000000000    0.0000000000000000
    -0.0000000000000000    6.6545020903402659    0.0000000000000000
     0.0000000000000000    0.0000000000000000    7.6084452729370460
   4   4   4
Direct
  0.2500000000000000  0.7657757648737058  0.3849114482721535
  0.7500000000000000  0.7342242351262942  0.8849114482721534
  0.7500000000000000  0.2342242351262943  0.6150885517278466
  0.2500000000000000  0.2657757648737057  0.1150885517278465
  0.2500000000000000  0.1443372958199774  0.4340091077284302
  0.7500000000000000  0.3556627041800227  0.9340091077284302
  0.7500000000000000  0.8556627041800227  0.5659908922715698
  0.2500000000000000  0.6443372958199773  0.0659908922715698
  0.2500000000000000  0.0210029810029482  0.8080520263321364
  0.7500000000000000  0.4789970189970518  0.3080520263321364
  0.7500000000000000  0.9789970189970518  0.1919479736678636
  0.2500000000000000  0.5210029810029482  0.6919479736678636
 
  0.00000000E+00  0.00000000E+00  0.00000000E+00
  0.00000000E+00  0.00000000E+00  0.00000000E+00
  0.00000000E+00  0.00000000E+00  0.00000000E+00
  0.00000000E+00  0.00000000E+00  0.00000000E+00
  0.00000000E+00  0.00000000E+00  0.00000000E+00
  0.00000000E+00  0.00000000E+00  0.00000000E+00
  0.00000000E+00  0.00000000E+00  0.00000000E+00
  0.00000000E+00  0.00000000E+00  0.00000000E+00
  0.00000000E+00  0.00000000E+00  0.00000000E+00
  0.00000000E+00  0.00000000E+00  0.00000000E+00
  0.00000000E+00  0.00000000E+00  0.00000000E+00
  0.00000000E+00  0.00000000E+00  0.00000000E+00
