Bi2Pt1   [CUB,CUB,cP12] (STD_PRIM doi:10
   1.00000000000000     
     6.8016528487274561    0.0000000000000000    0.0000000000000000
     0.0000000000000000    6.8016528487274561    0.0000000000000000
     0.0000000000000000   -0.0000000000000000    6.8016528487274561
   8   4
Direct
  0.3694927901550082  0.3694927901550082  0.3694927901550082
  0.1305072098449917  0.6305072098449916  0.8694927901550084
  0.6305072098449916  0.8694927901550084  0.1305072098449917
  0.8694927901550084  0.1305072098449917  0.6305072098449916
  0.6305072098449916  0.6305072098449916  0.6305072098449916
  0.8694927901550084  0.3694927901550082  0.1305072098449917
  0.3694927901550082  0.1305072098449917  0.8694927901550084
  0.1305072098449917  0.8694927901550084  0.3694927901550082
  0.0000000000000000  0.0000000000000000  0.0000000000000000
  0.5000000000000000  0.0000000000000000  0.5000000000000000
  0.0000000000000000  0.5000000000000000  0.5000000000000000
  0.5000000000000000  0.5000000000000000  0.0000000000000000
 
  0.00000000E+00  0.00000000E+00  0.00000000E+00
  0.00000000E+00  0.00000000E+00  0.00000000E+00
  0.00000000E+00  0.00000000E+00  0.00000000E+00
  0.00000000E+00  0.00000000E+00  0.00000000E+00
  0.00000000E+00  0.00000000E+00  0.00000000E+00
  0.00000000E+00  0.00000000E+00  0.00000000E+00
  0.00000000E+00  0.00000000E+00  0.00000000E+00
  0.00000000E+00  0.00000000E+00  0.00000000E+00
  0.00000000E+00  0.00000000E+00  0.00000000E+00
  0.00000000E+00  0.00000000E+00  0.00000000E+00
  0.00000000E+00  0.00000000E+00  0.00000000E+00
  0.00000000E+00  0.00000000E+00  0.00000000E+00
