Be5Sc1   [HEX,HEX,hP6] (STD_PRIM doi:10.
   1.00000000000000     
     2.2869725513941113   -3.9611526545300304    0.0000000000000000
     2.2872474508844798    3.9613113678247949    0.0000000000000000
     0.0000000000000000    0.0000000000000000    3.5158660225197997
   5   1
Direct
  0.6666878679993218  0.3333757359986365  0.0000000000000000
  0.3333121320006782  0.6666242640013635  0.0000000000000000
  0.0000000000000000  0.5000000000000000  0.5000000000000000
  0.5000000000000000  0.5000000000000000  0.5000000000000000
  0.5000000000000000  0.0000000000000000  0.5000000000000000
  0.0000000000000000  0.0000000000000000  0.0000000000000000
 
  0.00000000E+00  0.00000000E+00  0.00000000E+00
  0.00000000E+00  0.00000000E+00  0.00000000E+00
  0.00000000E+00  0.00000000E+00  0.00000000E+00
  0.00000000E+00  0.00000000E+00  0.00000000E+00
  0.00000000E+00  0.00000000E+00  0.00000000E+00
  0.00000000E+00  0.00000000E+00  0.00000000E+00
