Ge1Mg2O4   [FCC,FCC,cF56] (STD_PRIM doi:
   1.22474500000000     
     0.0000000000000000    3.4100177888947996    3.4100177888947996
     3.4100177888947996    0.0000000000000000    3.4100177888947996
     3.4100177888947996    3.4100177888947996   -0.0000000000000000
   2   4   8
Direct
 -0.0000000000000000  0.0000000000000000 -0.0000000000000000
  0.7500000000000000  0.7500000000000000  0.7500000000000000
  0.3750000000000000  0.8750000000000000  0.3750000000000000
  0.3750000000000000  0.3750000000000000  0.3750000000000000
  0.8750000000000000  0.3750000000000000  0.3750000000000000
  0.3750000000000000  0.3750000000000000  0.8750000000000000
  0.6248817402587771  0.1253547792236828  0.6248817402587771
  0.6248817402587771  0.6248817402587771  0.6248817402587771
  0.1253547792236828  0.6248817402587771  0.6248817402587771
  0.6248817402587771  0.6248817402587771  0.1253547792236828
  0.1251182597412229  0.1251182597412229  0.1251182597412229
  0.1251182597412229  0.6246452207763171  0.1251182597412229
  0.6246452207763171  0.1251182597412229  0.1251182597412229
  0.1251182597412229  0.1251182597412229  0.6246452207763171
 
  0.00000000E+00  0.00000000E+00  0.00000000E+00
  0.00000000E+00  0.00000000E+00  0.00000000E+00
  0.00000000E+00  0.00000000E+00  0.00000000E+00
  0.00000000E+00  0.00000000E+00  0.00000000E+00
  0.00000000E+00  0.00000000E+00  0.00000000E+00
  0.00000000E+00  0.00000000E+00  0.00000000E+00
  0.00000000E+00  0.00000000E+00  0.00000000E+00
  0.00000000E+00  0.00000000E+00  0.00000000E+00
  0.00000000E+00  0.00000000E+00  0.00000000E+00
  0.00000000E+00  0.00000000E+00  0.00000000E+00
  0.00000000E+00  0.00000000E+00  0.00000000E+00
  0.00000000E+00  0.00000000E+00  0.00000000E+00
  0.00000000E+00  0.00000000E+00  0.00000000E+00
  0.00000000E+00  0.00000000E+00  0.00000000E+00
