In24S32   [FCC,FCC,cF56] (STD_PRIM doi:1
   1.22474500000000     
    -0.0000000000000000    4.5456279855920831    4.5456279855920831
     4.5456279855920831   -0.0000000000000000    4.5456279855920831
     4.5456279855920831    4.5456279855920831   -0.0000000000000000
   6   8
Direct
 -0.0000000000000000 -0.0000000000000000 -0.0000000000000000
  0.2500000000000000  0.2500000000000000  0.2500000000000000
  0.6250000000000000  0.6250000000000000  0.6250000000000000
  0.6250000000000000  0.6250000000000000  0.1250000000000000
  0.6250000000000000  0.1250000000000000  0.6250000000000000
  0.1250000000000000  0.6250000000000000  0.6250000000000000
  0.3842354327950487  0.3842354327950487  0.3842354327950487
  0.3842354327950487  0.3842354327950487  0.8472937016148679
  0.3842354327950487  0.8472937016148679  0.3842354327950487
  0.8472937016148679  0.3842354327950487  0.3842354327950487
  0.8657645672049512  0.8657645672049512  0.4027062983851319
  0.8657645672049512  0.8657645672049512  0.8657645672049512
  0.8657645672049512  0.4027062983851319  0.8657645672049512
  0.4027062983851319  0.8657645672049512  0.8657645672049512
 
  0.00000000E+00  0.00000000E+00  0.00000000E+00
  0.00000000E+00  0.00000000E+00  0.00000000E+00
  0.00000000E+00  0.00000000E+00  0.00000000E+00
  0.00000000E+00  0.00000000E+00  0.00000000E+00
  0.00000000E+00  0.00000000E+00  0.00000000E+00
  0.00000000E+00  0.00000000E+00  0.00000000E+00
  0.00000000E+00  0.00000000E+00  0.00000000E+00
  0.00000000E+00  0.00000000E+00  0.00000000E+00
  0.00000000E+00  0.00000000E+00  0.00000000E+00
  0.00000000E+00  0.00000000E+00  0.00000000E+00
  0.00000000E+00  0.00000000E+00  0.00000000E+00
  0.00000000E+00  0.00000000E+00  0.00000000E+00
  0.00000000E+00  0.00000000E+00  0.00000000E+00
  0.00000000E+00  0.00000000E+00  0.00000000E+00
