Au1Ga1Zr1   [HEX,HEX,hP6] (STD_PRIM doi:
   1.00000000000000     
     2.2384710154919039   -3.8771455301022786    0.0000000000000000
     2.2387420622565783    3.8773020190248264    0.0000000000000000
     0.0000000000000000    0.0000000000000000    6.4062033110084906
   2   2   2
Direct
  0.6666891059620832  0.3333782119241592  0.7409030422153476
  0.6666891059620832  0.3333782119241592  0.2590969577846453
  0.3333184546441283  0.6666369092882566  0.7643294491210465
  0.3333184546441283  0.6666369092882566  0.2356705508789535
  0.0000047168793297  0.0000094337586523  0.0000000000000000
  0.9999801619082616  0.9999603238165160  0.5000000000000000
 
  0.00000000E+00  0.00000000E+00  0.00000000E+00
  0.00000000E+00  0.00000000E+00  0.00000000E+00
  0.00000000E+00  0.00000000E+00  0.00000000E+00
  0.00000000E+00  0.00000000E+00  0.00000000E+00
  0.00000000E+00  0.00000000E+00  0.00000000E+00
  0.00000000E+00  0.00000000E+00  0.00000000E+00
