Er2Mg1Se4   [FCC,FCC,cF56] (STD_PRIM doi
   1.22474500000000     
    -0.0000000000000000    4.7456708504642018    4.7456708504642018
     4.7456708504642018   -0.0000000000000000    4.7456708504642018
     4.7456708504642018    4.7456708504642018   -0.0000000000000000
   4   2   8
Direct
 -0.0000000000000000  0.0000000000000000  0.0000000000000000
  0.5000000000000000  0.0000000000000000  0.5000000000000000
  0.5000000000000000  0.5000000000000000 -0.0000000000000000
  0.5000000000000000 -0.0000000000000000 -0.0000000000000000
  0.1250000000000000  0.6250000000000000  0.6250000000000000
  0.8750000000000000  0.3750000000000000  0.3750000000000000
  0.7343315172789077  0.7552228275736999  0.7552228275736999
  0.2552228275736998  0.7552228275736999  0.2343315172789077
  0.2552228275736998  0.2343315172789077  0.7552228275736999
  0.2552228275736998  0.7552228275736999  0.7552228275736999
  0.7447771724263001  0.2447771724263002  0.7656684827210923
  0.2656684827210923  0.2447771724263002  0.2447771724263002
  0.7447771724263001  0.7656684827210923  0.2447771724263002
  0.7447771724263001  0.2447771724263002  0.2447771724263002
 
  0.00000000E+00  0.00000000E+00  0.00000000E+00
  0.00000000E+00  0.00000000E+00  0.00000000E+00
  0.00000000E+00  0.00000000E+00  0.00000000E+00
  0.00000000E+00  0.00000000E+00  0.00000000E+00
  0.00000000E+00  0.00000000E+00  0.00000000E+00
  0.00000000E+00  0.00000000E+00  0.00000000E+00
  0.00000000E+00  0.00000000E+00  0.00000000E+00
  0.00000000E+00  0.00000000E+00  0.00000000E+00
  0.00000000E+00  0.00000000E+00  0.00000000E+00
  0.00000000E+00  0.00000000E+00  0.00000000E+00
  0.00000000E+00  0.00000000E+00  0.00000000E+00
  0.00000000E+00  0.00000000E+00  0.00000000E+00
  0.00000000E+00  0.00000000E+00  0.00000000E+00
  0.00000000E+00  0.00000000E+00  0.00000000E+00
