Ce1Ge3V1   [HEX,HEX,hP10] (STD_PRIM doi:
   1.00000000000000     
     3.0987746514232293   -5.3675261166175661   -0.0000000000000000
     3.0987746514232293    5.3675261166175661    0.0000000000000000
     0.0000000000000000    0.0000000000000000    5.6404609089177518
   2   6   2
Direct
  0.3333151035677023  0.6666848964322977  0.7500000000000000
  0.6666848964322977  0.3333151035677023  0.2500000000000000
  0.1957555916312602  0.3914733547936212  0.2500000000000000
  0.6085266452063788  0.8042444083687398  0.2500000000000000
  0.1957354099893328  0.8042645900106672  0.2500000000000000
  0.8042444083687398  0.6085266452063788  0.7500000000000000
  0.3914733547936212  0.1957555916312602  0.7500000000000000
  0.8042645900106672  0.1957354099893328  0.7500000000000000
  0.0000000000000000 -0.0000000000000000 -0.0000000000000000
 -0.0000000000000000  0.0000000000000000  0.5000000000000000
 
  0.00000000E+00  0.00000000E+00  0.00000000E+00
  0.00000000E+00  0.00000000E+00  0.00000000E+00
  0.00000000E+00  0.00000000E+00  0.00000000E+00
  0.00000000E+00  0.00000000E+00  0.00000000E+00
  0.00000000E+00  0.00000000E+00  0.00000000E+00
  0.00000000E+00  0.00000000E+00  0.00000000E+00
  0.00000000E+00  0.00000000E+00  0.00000000E+00
  0.00000000E+00  0.00000000E+00  0.00000000E+00
  0.00000000E+00  0.00000000E+00  0.00000000E+00
  0.00000000E+00  0.00000000E+00  0.00000000E+00
