La1Si1   [ORC,ORC,oP8] (STD_PRIM doi:10.
   1.00000000000000     
     4.0234582340618212    0.0000000000000000    0.0000000000000000
    -0.0000000000000000    6.1000080006932897    0.0000000000000000
     0.0000000000000000    0.0000000000000000    8.4922443116264024
   4   4
Direct
  0.7500000000000000  0.8863245146567349  0.1792523940588340
  0.2500000000000000  0.3863245146567348  0.3207476059411660
  0.2500000000000000  0.1136754853432651  0.8207476059411660
  0.7500000000000000  0.6136754853432651  0.6792523940588340
  0.7500000000000000  0.3833715114308273  0.0333127351533068
  0.2500000000000000  0.8833715114308274  0.4666872648466932
  0.2500000000000000  0.6166284885691726  0.9666872648466932
  0.7500000000000000  0.1166284885691727  0.5333127351533068
 
  0.00000000E+00  0.00000000E+00  0.00000000E+00
  0.00000000E+00  0.00000000E+00  0.00000000E+00
  0.00000000E+00  0.00000000E+00  0.00000000E+00
  0.00000000E+00  0.00000000E+00  0.00000000E+00
  0.00000000E+00  0.00000000E+00  0.00000000E+00
  0.00000000E+00  0.00000000E+00  0.00000000E+00
  0.00000000E+00  0.00000000E+00  0.00000000E+00
  0.00000000E+00  0.00000000E+00  0.00000000E+00
