N3Ta2Zr1   [HEX,HEX,hP6] (STD_PRIM doi:1
   1.00000000000000     
     2.6567585887302614   -4.6018300703469812    0.0000000000000000
     2.6567585887302614    4.6018300703469812    0.0000000000000000
     0.0000000000000000    0.0000000000000000    2.9951152107214836
   3   2   1
Direct
  0.5000000000000000  0.0000000000000000  0.0000000000000000
  0.0000000000000000  0.5000000000000000  0.0000000000000000
  0.5000000000000000  0.5000000000000000  0.0000000000000000
  0.3333198451479210  0.6666801548520790  0.5000000000000000
  0.6666801548520790  0.3333198451479210  0.5000000000000000
  0.0000000000000000  0.0000000000000000  0.0000000000000000
 
  0.00000000E+00  0.00000000E+00  0.00000000E+00
  0.00000000E+00  0.00000000E+00  0.00000000E+00
  0.00000000E+00  0.00000000E+00  0.00000000E+00
  0.00000000E+00  0.00000000E+00  0.00000000E+00
  0.00000000E+00  0.00000000E+00  0.00000000E+00
  0.00000000E+00  0.00000000E+00  0.00000000E+00
