N1Ta1   [HEX,HEX,hP4] (STD_PRIM doi:10.1
   1.00000000000000     
     1.4695109626876788   -2.5452676496545141   -0.0000000000000000
     1.4696359013655909    2.5453397830338376   -0.0000000000000000
    -0.0000000000000000    0.0000000000000000    5.9593727601404813
   2   2
Direct
  0.6666775162363457  0.3333550324726915  0.2500000000000000
  0.3333224837636543  0.6666449675273085  0.7500000000000000
 -0.0000000000000000 -0.0000000000000000  0.0000000000000000
  0.0000000000000000  0.0000000000000000  0.5000000000000000
 
  0.00000000E+00  0.00000000E+00  0.00000000E+00
  0.00000000E+00  0.00000000E+00  0.00000000E+00
  0.00000000E+00  0.00000000E+00  0.00000000E+00
  0.00000000E+00  0.00000000E+00  0.00000000E+00
