Al1N3V4   [HEX,HEX,hP16] (STD_PRIM doi:1
   1.00000000000000     
     1.4742086040490172   -2.5534042031680872    0.0000000000000000
     1.4742070311350066    2.5534032950457610    0.0000000000000000
     0.0000000000000000    0.0000000000000000   22.6362300393938263
   2   6   8
Direct
  0.6666721466083834  0.3333442932167668  0.2500000000000000
  0.3333278533916166  0.6666557067832333  0.7500000000000000
  0.0000000000000000  0.0000000000000000  0.0000000000000000
  0.0000000000000000  0.0000000000000000  0.5000000000000000
  0.3333360385619372  0.6666720771238743  0.1071978537740930
  0.6666639614380628  0.3333279228761258  0.6071978537740930
  0.6666639614380628  0.3333279228761258  0.8928021462259070
  0.3333360385619372  0.6666720771238743  0.3928021462259069
  0.6666681882317381  0.3333363764634762  0.0550660300806975
  0.3333318117682619  0.6666636235365239  0.5550660300806975
  0.3333318117682619  0.6666636235365239  0.9449339699193025
  0.6666681882317381  0.3333363764634762  0.4449339699193025
  0.0000034202659391  0.0000068405318783  0.1520865658939415
  0.9999965797340609  0.9999931594681217  0.6520865658939416
  0.9999965797340609  0.9999931594681217  0.8479134341060584
  0.0000034202659391  0.0000068405318783  0.3479134341060585
 
  0.00000000E+00  0.00000000E+00  0.00000000E+00
  0.00000000E+00  0.00000000E+00  0.00000000E+00
  0.00000000E+00  0.00000000E+00  0.00000000E+00
  0.00000000E+00  0.00000000E+00  0.00000000E+00
  0.00000000E+00  0.00000000E+00  0.00000000E+00
  0.00000000E+00  0.00000000E+00  0.00000000E+00
  0.00000000E+00  0.00000000E+00  0.00000000E+00
  0.00000000E+00  0.00000000E+00  0.00000000E+00
  0.00000000E+00  0.00000000E+00  0.00000000E+00
  0.00000000E+00  0.00000000E+00  0.00000000E+00
  0.00000000E+00  0.00000000E+00  0.00000000E+00
  0.00000000E+00  0.00000000E+00  0.00000000E+00
  0.00000000E+00  0.00000000E+00  0.00000000E+00
  0.00000000E+00  0.00000000E+00  0.00000000E+00
  0.00000000E+00  0.00000000E+00  0.00000000E+00
  0.00000000E+00  0.00000000E+00  0.00000000E+00
