Tb3Tl5   [ORCC,ORCC,oS32] (STD_PRIM doi:
   1.00000000000000     
     4.0768256980277142   -5.0653194414445286    0.0000000000000000
     4.0768256980277142    5.0653194414445286    0.0000000000000000
     0.0000000000000000    0.0000000000000000   10.5527601966678848
   6  10
Direct
  0.6113553675100575  0.6113553675100575  0.7500000000000000
  0.3886446324899426  0.3886446324899426  0.2500000000000000
  0.7939460923976140  0.2060539076023860  0.0000000000000000
  0.2060539076023860  0.7939460923976140  0.5000000000000000
  0.2060539076023860  0.7939460923976140  0.0000000000000000
  0.7939460923976140  0.2060539076023860  0.5000000000000000
  0.0022084649531337  0.0022084649531337  0.7500000000000000
  0.9977915350468664  0.9977915350468664  0.2500000000000000
  0.3022131833445923  0.3022131833445923  0.5373832482279519
  0.6977868166554078  0.6977868166554078  0.0373832482279519
  0.3022131833445923  0.3022131833445923  0.9626167517720481
  0.6977868166554078  0.6977868166554078  0.4626167517720480
  0.0674813801077710  0.5114490016589135  0.7500000000000000
  0.9325186198922290  0.4885509983410865  0.2500000000000000
  0.5114490016589135  0.0674813801077710  0.7500000000000000
  0.4885509983410865  0.9325186198922290  0.2500000000000000
 
  0.00000000E+00  0.00000000E+00  0.00000000E+00
  0.00000000E+00  0.00000000E+00  0.00000000E+00
  0.00000000E+00  0.00000000E+00  0.00000000E+00
  0.00000000E+00  0.00000000E+00  0.00000000E+00
  0.00000000E+00  0.00000000E+00  0.00000000E+00
  0.00000000E+00  0.00000000E+00  0.00000000E+00
  0.00000000E+00  0.00000000E+00  0.00000000E+00
  0.00000000E+00  0.00000000E+00  0.00000000E+00
  0.00000000E+00  0.00000000E+00  0.00000000E+00
  0.00000000E+00  0.00000000E+00  0.00000000E+00
  0.00000000E+00  0.00000000E+00  0.00000000E+00
  0.00000000E+00  0.00000000E+00  0.00000000E+00
  0.00000000E+00  0.00000000E+00  0.00000000E+00
  0.00000000E+00  0.00000000E+00  0.00000000E+00
  0.00000000E+00  0.00000000E+00  0.00000000E+00
  0.00000000E+00  0.00000000E+00  0.00000000E+00
