O6Ta2V1   [TET,TET,tP18] (STD_PRIM doi:1
   1.00000000000000     
     4.8433043476438176    0.0000000000000000    0.0000000000000000
     0.0000000000000000    4.8433043476438176    0.0000000000000000
     0.0000000000000000    0.0000000000000000    9.2761089264263958
  12   4   2
Direct
  0.3138448608796359  0.3138448608796359  0.0000000000000000
  0.6861551391203641  0.6861551391203641  0.0000000000000000
  0.1861551391203641  0.8138448608796359  0.5000000000000000
  0.8138448608796359  0.1861551391203641  0.5000000000000000
  0.2948706648525427  0.2948706648525427  0.3225661871927459
  0.7051293351474572  0.7051293351474572  0.3225661871927459
  0.2051293351474573  0.7948706648525428  0.8225661871927459
  0.7948706648525428  0.2051293351474573  0.8225661871927459
  0.2051293351474573  0.7948706648525428  0.1774338128072541
  0.7948706648525428  0.2051293351474573  0.1774338128072541
  0.2948706648525427  0.2948706648525427  0.6774338128072541
  0.7051293351474572  0.7051293351474572  0.6774338128072541
  0.0000000000000000  0.0000000000000000  0.3306120980526975
  0.5000000000000000  0.5000000000000000  0.8306120980526975
  0.5000000000000000  0.5000000000000000  0.1693879019473025
  0.0000000000000000  0.0000000000000000  0.6693879019473025
  0.0000000000000000  0.0000000000000000  0.0000000000000000
  0.5000000000000000  0.5000000000000000  0.5000000000000000
 
  0.00000000E+00  0.00000000E+00  0.00000000E+00
  0.00000000E+00  0.00000000E+00  0.00000000E+00
  0.00000000E+00  0.00000000E+00  0.00000000E+00
  0.00000000E+00  0.00000000E+00  0.00000000E+00
  0.00000000E+00  0.00000000E+00  0.00000000E+00
  0.00000000E+00  0.00000000E+00  0.00000000E+00
  0.00000000E+00  0.00000000E+00  0.00000000E+00
  0.00000000E+00  0.00000000E+00  0.00000000E+00
  0.00000000E+00  0.00000000E+00  0.00000000E+00
  0.00000000E+00  0.00000000E+00  0.00000000E+00
  0.00000000E+00  0.00000000E+00  0.00000000E+00
  0.00000000E+00  0.00000000E+00  0.00000000E+00
  0.00000000E+00  0.00000000E+00  0.00000000E+00
  0.00000000E+00  0.00000000E+00  0.00000000E+00
  0.00000000E+00  0.00000000E+00  0.00000000E+00
  0.00000000E+00  0.00000000E+00  0.00000000E+00
  0.00000000E+00  0.00000000E+00  0.00000000E+00
  0.00000000E+00  0.00000000E+00  0.00000000E+00
