CNb_sv/201 - (201) - ???? [AB] (201)  (h
   1.22474500000000     
     0.0000000000000000    1.8310365758650085    1.8310365758650085
     1.8310365758650085    0.0000000000000000    1.8310365758650085
     1.8310365758650085    1.8310365758650085    0.0000000000000000
   1   1
Direct
  0.0000000000000000  0.0000000000000000  0.0000000000000000
  0.5000000000000000  0.5000000000000000  0.5000000000000000
 
  0.00000000E+00  0.00000000E+00  0.00000000E+00
  0.00000000E+00  0.00000000E+00  0.00000000E+00
