Ho1Rh1Si1   [ORC,ORC,oP12] (STD_PRIM doi
   1.00000000000000     
     4.2390709529421073    0.0000000000000000    0.0000000000000000
     0.0000000000000000    6.8691689108164473    0.0000000000000000
     0.0000000000000000    0.0000000000000000    7.3345576456826409
   4   4   4
Direct
  0.2500000000000000  0.9973887560036496  0.8099898629966610
  0.7500000000000000  0.5026112439963575  0.3099898629966609
  0.7500000000000000  0.0026112439963504  0.1900101370033390
  0.2500000000000000  0.4973887560036496  0.6900101370033390
  0.2500000000000000  0.1537705025762838  0.4292978591681381
  0.7500000000000000  0.3462294974237162  0.9292978591681451
  0.7500000000000000  0.8462294974237162  0.5707021408318549
  0.2500000000000000  0.6537705025762838  0.0707021408318549
  0.2500000000000000  0.7960474071098639  0.3973229902421512
  0.7500000000000000  0.7039525928901361  0.8973229902421512
  0.7500000000000000  0.2039525928901361  0.6026770097578488
  0.2500000000000000  0.2960474071098639  0.1026770097578488
 
  0.00000000E+00  0.00000000E+00  0.00000000E+00
  0.00000000E+00  0.00000000E+00  0.00000000E+00
  0.00000000E+00  0.00000000E+00  0.00000000E+00
  0.00000000E+00  0.00000000E+00  0.00000000E+00
  0.00000000E+00  0.00000000E+00  0.00000000E+00
  0.00000000E+00  0.00000000E+00  0.00000000E+00
  0.00000000E+00  0.00000000E+00  0.00000000E+00
  0.00000000E+00  0.00000000E+00  0.00000000E+00
  0.00000000E+00  0.00000000E+00  0.00000000E+00
  0.00000000E+00  0.00000000E+00  0.00000000E+00
  0.00000000E+00  0.00000000E+00  0.00000000E+00
  0.00000000E+00  0.00000000E+00  0.00000000E+00
