Ir1P1Se1   [CUB,CUB,cP12] (STD_PRIM doi:
   1.00000000000000     
     5.8489633265933625    0.0000000000000000    0.0000000000000000
    -0.0000000000000000    5.8489633265933625    0.0000000000000000
     0.0000000000000000   -0.0000000000000000    5.8489633265933625
   4   4   4
Direct
  0.0143557734876480  0.0143557734876480  0.0143557734876480
  0.4856442265123521  0.9856442265123521  0.5143557734876479
  0.9856442265123521  0.5143557734876479  0.4856442265123521
  0.5143557734876479  0.4856442265123521  0.9856442265123521
  0.6147626034707347  0.6147626034707347  0.6147626034707347
  0.8852373965292653  0.3852373965292653  0.1147626034707347
  0.3852373965292653  0.1147626034707347  0.8852373965292653
  0.1147626034707347  0.8852373965292653  0.3852373965292653
  0.3846047455879716  0.3846047455879716  0.3846047455879716
  0.1153952544120284  0.6153952544120284  0.8846047455879716
  0.6153952544120284  0.8846047455879716  0.1153952544120284
  0.8846047455879716  0.1153952544120284  0.6153952544120284
 
  0.00000000E+00  0.00000000E+00  0.00000000E+00
  0.00000000E+00  0.00000000E+00  0.00000000E+00
  0.00000000E+00  0.00000000E+00  0.00000000E+00
  0.00000000E+00  0.00000000E+00  0.00000000E+00
  0.00000000E+00  0.00000000E+00  0.00000000E+00
  0.00000000E+00  0.00000000E+00  0.00000000E+00
  0.00000000E+00  0.00000000E+00  0.00000000E+00
  0.00000000E+00  0.00000000E+00  0.00000000E+00
  0.00000000E+00  0.00000000E+00  0.00000000E+00
  0.00000000E+00  0.00000000E+00  0.00000000E+00
  0.00000000E+00  0.00000000E+00  0.00000000E+00
  0.00000000E+00  0.00000000E+00  0.00000000E+00
