As2Ca1Fe2   [BCT,BCT2,tI10] (STD_PRIM do
   1.00000000000000     
    -2.0061111918464047    2.0061111918464047    5.0422262894570915
     2.0061111918464047   -2.0061111918464047    5.0422262894570915
     2.0061111918464047    2.0061111918464047   -5.0422262894570915
   2   1   2
Direct
  0.6398409882196930  0.6398409882196930  0.0000000000000000
  0.3601590117803070  0.3601590117803070  0.0000000000000000
  0.0000000000000000 -0.0000000000000000 -0.0000000000000000
  0.2500000000000000  0.7500000000000000  0.5000000000000000
  0.7500000000000000  0.2500000000000000  0.5000000000000000
 
  0.00000000E+00  0.00000000E+00  0.00000000E+00
  0.00000000E+00  0.00000000E+00  0.00000000E+00
  0.00000000E+00  0.00000000E+00  0.00000000E+00
  0.00000000E+00  0.00000000E+00  0.00000000E+00
  0.00000000E+00  0.00000000E+00  0.00000000E+00
