As1F6Na1   [FCC,FCC,cF32] (STD_PRIM doi:
   1.22474500000000     
     0.0000000000000000    3.3402835206269863    3.3402835206269863
     3.3402835206269863   -0.0000000000000000    3.3402835206269863
     3.3402835206269863    3.3402835206269863   -0.0000000000000000
   1   6   1
Direct
 -0.0000000000000000 -0.0000000000000000  0.0000000000000000
  0.7835275183950705  0.2164724816049295  0.7835275183950705
  0.2164724816049295  0.7835275183950705  0.2164724816049295
  0.2164724816049295  0.2164724816049295  0.7835275183950705
  0.7835275183950705  0.7835275183950705  0.2164724816049295
  0.2164724816049295  0.7835275183950705  0.7835275183950705
  0.7835275183950705  0.2164724816049295  0.2164724816049295
  0.5000000000000000  0.5000000000000000  0.5000000000000000
 
  0.00000000E+00  0.00000000E+00  0.00000000E+00
  0.00000000E+00  0.00000000E+00  0.00000000E+00
  0.00000000E+00  0.00000000E+00  0.00000000E+00
  0.00000000E+00  0.00000000E+00  0.00000000E+00
  0.00000000E+00  0.00000000E+00  0.00000000E+00
  0.00000000E+00  0.00000000E+00  0.00000000E+00
  0.00000000E+00  0.00000000E+00  0.00000000E+00
  0.00000000E+00  0.00000000E+00  0.00000000E+00
