Cs2F6Ge1 #225 - (Cs2F6Ge1_ICSD_35547) - 
   1.22474500000000     
     0.0000000000000000    3.7136418905930992    3.7136418905930992
     3.7136418905931001   -0.0000000000000000    3.7136418905930992
     3.7136418905931001    3.7136418905930992   -0.0000000000000000
   2   6   1
Direct
  0.7500000000000000  0.7500000000000000  0.7500000000000000
  0.2500000000000000  0.2500000000000000  0.2500000000000000
  0.7974833799718708  0.2025166200281291  0.7974833799718708
  0.2025166200281291  0.7974833799718708  0.2025166200281291
  0.7974833799718708  0.2025166200281291  0.2025166200281291
  0.2025166200281291  0.7974833799718708  0.7974833799718708
  0.2025166200281291  0.2025166200281291  0.7974833799718708
  0.7974833799718708  0.7974833799718708  0.2025166200281291
  0.0000000000000000  0.0000000000000000 -0.0000000000000000
 
  0.00000000E+00  0.00000000E+00  0.00000000E+00
  0.00000000E+00  0.00000000E+00  0.00000000E+00
  0.00000000E+00  0.00000000E+00  0.00000000E+00
  0.00000000E+00  0.00000000E+00  0.00000000E+00
  0.00000000E+00  0.00000000E+00  0.00000000E+00
  0.00000000E+00  0.00000000E+00  0.00000000E+00
  0.00000000E+00  0.00000000E+00  0.00000000E+00
  0.00000000E+00  0.00000000E+00  0.00000000E+00
  0.00000000E+00  0.00000000E+00  0.00000000E+00
