Bi1Pt1Te1   [CUB,CUB,cP12] (STD_PRIM doi
   1.00000000000000     
     6.7376657034073721    0.0000000000000000   -0.0000000000000000
     0.0000000000000000    6.7376657034073721    0.0000000000000000
     0.0000000000000000    0.0000000000000000    6.7376657034073721
   4   4   4
Direct
  0.3680297843562541  0.3680297843562541  0.3680297843562541
  0.1319702156437458  0.6319702156437458  0.8680297843562542
  0.6319702156437458  0.8680297843562542  0.1319702156437458
  0.8680297843562542  0.1319702156437458  0.6319702156437458
  0.0050949176242476  0.0050949176242476  0.0050949176242476
  0.4949050823757524  0.9949050823757525  0.5050949176242475
  0.9949050823757525  0.5050949176242475  0.4949050823757524
  0.5050949176242475  0.4949050823757524  0.9949050823757525
  0.6270838628511831  0.6270838628511831  0.6270838628511831
  0.8729161371488169  0.3729161371488169  0.1270838628511831
  0.3729161371488169  0.1270838628511831  0.8729161371488169
  0.1270838628511831  0.8729161371488169  0.3729161371488169
 
  0.00000000E+00  0.00000000E+00  0.00000000E+00
  0.00000000E+00  0.00000000E+00  0.00000000E+00
  0.00000000E+00  0.00000000E+00  0.00000000E+00
  0.00000000E+00  0.00000000E+00  0.00000000E+00
  0.00000000E+00  0.00000000E+00  0.00000000E+00
  0.00000000E+00  0.00000000E+00  0.00000000E+00
  0.00000000E+00  0.00000000E+00  0.00000000E+00
  0.00000000E+00  0.00000000E+00  0.00000000E+00
  0.00000000E+00  0.00000000E+00  0.00000000E+00
  0.00000000E+00  0.00000000E+00  0.00000000E+00
  0.00000000E+00  0.00000000E+00  0.00000000E+00
  0.00000000E+00  0.00000000E+00  0.00000000E+00
