In1Tb2   [HEX,HEX,hP6] (STD_PRIM doi:10.
   1.00000000000000     
     2.7081705522823101   -4.6904829452473091    0.0000000000000000
     2.7081705522823101    4.6904829452473091    0.0000000000000000
     0.0000000000000000    0.0000000000000000    6.7477031982716857
   2   4
Direct
  0.3333102080260772  0.6666897919739228  0.2500000000000000
  0.6666897919739228  0.3333102080260772  0.7500000000000000
  0.0000000000000000  0.0000000000000000  0.0000000000000000
  0.0000000000000000  0.0000000000000000  0.5000000000000000
  0.3333102628380473  0.6666897371619527  0.7500000000000000
  0.6666897371619527  0.3333102628380473  0.2500000000000000
 
  0.00000000E+00  0.00000000E+00  0.00000000E+00
  0.00000000E+00  0.00000000E+00  0.00000000E+00
  0.00000000E+00  0.00000000E+00  0.00000000E+00
  0.00000000E+00  0.00000000E+00  0.00000000E+00
  0.00000000E+00  0.00000000E+00  0.00000000E+00
  0.00000000E+00  0.00000000E+00  0.00000000E+00
