Ca1F2   [TET,TET,tP3] (STD_PRIM doi:10.1
   1.00000000000000     
     3.7484742840174090    0.0000000000000000    0.0000000000000000
     0.0000000000000000    3.7484742840174090    0.0000000000000000
     0.0000000000000000    0.0000000000000000    3.0195653135518894
   1   2
Direct
  0.0000000000000000  0.0000000000000000  0.5000000000000000
  0.0000000000000000  0.5000000000000000  0.0000000000000000
  0.5000000000000000  0.0000000000000000  0.0000000000000000
 
  0.00000000E+00  0.00000000E+00  0.00000000E+00
  0.00000000E+00  0.00000000E+00  0.00000000E+00
  0.00000000E+00  0.00000000E+00  0.00000000E+00
