Er1In1Pt1   [HEX,HEX,hP9] (STD_PRIM doi:
   1.00000000000000     
     3.7902347451854719   -6.5649886663135062    0.0000000000000000
     3.7902347451854719    6.5649886663135062    0.0000000000000000
     0.0000000000000000    0.0000000000000000    3.8556530221693821
   3   3   3
Direct
  0.5914660160480059  0.9999981627671636  0.5000000000000000
  0.9999981627671636  0.5914660160480059  0.5000000000000000
  0.4085356929210455  0.4085356929210455  0.5000000000000000
  0.2584251304413043  0.0000055414701640  0.0000000000000000
  0.0000055414701640  0.2584251304413043  0.0000000000000000
  0.7415692183249178  0.7415692183249178  0.0000000000000000
 -0.0000013795998948 -0.0000013795998948  0.5000000000000000
  0.3333290885487527  0.6666725290785623  0.0000000000000000
  0.6666725290785623  0.3333290885487527  0.0000000000000000
 
  0.00000000E+00  0.00000000E+00  0.00000000E+00
  0.00000000E+00  0.00000000E+00  0.00000000E+00
  0.00000000E+00  0.00000000E+00  0.00000000E+00
  0.00000000E+00  0.00000000E+00  0.00000000E+00
  0.00000000E+00  0.00000000E+00  0.00000000E+00
  0.00000000E+00  0.00000000E+00  0.00000000E+00
  0.00000000E+00  0.00000000E+00  0.00000000E+00
  0.00000000E+00  0.00000000E+00  0.00000000E+00
  0.00000000E+00  0.00000000E+00  0.00000000E+00
