As1B2P1   [TET,TET,tP4] (STD_PRIM doi:10
   1.00000000000000     
     3.3081838180064334    0.0000000000000000    0.0000000000000000
     0.0000000000000000    3.3081838180064334    0.0000000000000000
     0.0000000000000000    0.0000000000000000    4.6834862489499196
   1   2   1
Direct
  0.0000000000000000  0.5000000000000000  0.7500000000000000
  0.0000000000000000  0.0000000000000000  0.0137664885258033
  0.5000000000000000  0.5000000000000000  0.4862335114741967
  0.5000000000000000  0.0000000000000000  0.2500000000000000
 
  0.00000000E+00  0.00000000E+00  0.00000000E+00
  0.00000000E+00  0.00000000E+00  0.00000000E+00
  0.00000000E+00  0.00000000E+00  0.00000000E+00
  0.00000000E+00  0.00000000E+00  0.00000000E+00
