Ag1Cl1 #225 - (Ag1Cl1_ICSD_157535) - Ag1
   1.22474500000000     
     0.0000000000000000    2.2931308883333301    2.2931308883333301
     2.2931308883333301    0.0000000000000000    2.2931308883333301
     2.2931308883333301    2.2931308883333301    0.0000000000000000
   1   1
Direct
  0.0000000000000000  0.0000000000000000  0.0000000000000000
  0.5000000000000000  0.5000000000000000  0.5000000000000000
 
  0.00000000E+00  0.00000000E+00  0.00000000E+00
  0.00000000E+00  0.00000000E+00  0.00000000E+00
