In2O3   [BCC,BCC,cI80] (STD_PRIM doi:10.
   1.00000000000000     
    -5.1206890173994370    5.1206890173994370    5.1206890173994370
     5.1206890173994370   -5.1206890173994370    5.1206890173994370
     5.1206890173994370    5.1206890173994370   -5.1206890173994370
  16  24
Direct
  0.0000000000000000  0.5000000000000000  0.0000000000000000
  0.5000000000000000  0.5000000000000000  0.5000000000000000
  0.0000000000000000  0.0000000000000000  0.5000000000000000
  0.5000000000000000 -0.0000000000000000  0.0000000000000000
  0.4663806071401794  0.7500000000000000  0.2163806071401793
  0.0336193928598206  0.2500000000000000  0.2836193928598206
  0.7836193928598206  0.5336193928598206  0.2500000000000000
  0.7163806071401794  0.9663806071401794  0.7500000000000000
  0.7500000000000000  0.2836193928598206  0.5336193928598206
  0.2500000000000000  0.2163806071401793  0.9663806071401794
  0.5336193928598206  0.2500000000000000  0.7836193928598206
  0.9663806071401794  0.7500000000000000  0.7163806071401794
  0.2163806071401793  0.4663806071401794  0.7500000000000000
  0.2836193928598206  0.0336193928598206  0.2500000000000000
  0.2500000000000000  0.7163806071401794  0.4663806071401794
  0.7500000000000000  0.7836193928598206  0.0336193928598206
  0.2355135044270933  0.4633586305722063  0.0077243905685212
  0.2644864955729067  0.2722108861414208  0.2278451261451130
  0.9556342400036922  0.2277891138585792  0.4922756094314787
  0.5443657599963078  0.0366413694277936  0.2721548738548870
  0.9922756094314787  0.4556342400036922  0.2277891138585792
  0.7721548738548869  0.0443657599963078  0.0366413694277936
  0.5077243905685213  0.7355135044270934  0.4633586305722063
  0.7278451261451131  0.7644864955729066  0.2722108861414208
  0.7722108861414209  0.2278451261451130  0.7644864955729066
  0.9633586305722064  0.0077243905685212  0.7355135044270934
  0.5366413694277936  0.2721548738548870  0.0443657599963078
  0.7277891138585791  0.4922756094314787  0.4556342400036922
  0.7644864955729066  0.5366413694277936  0.9922756094314787
  0.7355135044270934  0.7277891138585791  0.7721548738548869
  0.0443657599963078  0.7722108861414209  0.5077243905685213
  0.4556342400036922  0.9633586305722064  0.7278451261451131
  0.0077243905685212  0.5443657599963078  0.7722108861414209
  0.2278451261451130  0.9556342400036922  0.9633586305722064
  0.4922756094314787  0.2644864955729067  0.5366413694277936
  0.2721548738548870  0.2355135044270933  0.7277891138585791
  0.2277891138585792  0.7721548738548869  0.2355135044270933
  0.0366413694277936  0.9922756094314787  0.2644864955729067
  0.4633586305722063  0.7278451261451131  0.9556342400036922
  0.2722108861414208  0.5077243905685213  0.5443657599963078
 
  0.00000000E+00  0.00000000E+00  0.00000000E+00
  0.00000000E+00  0.00000000E+00  0.00000000E+00
  0.00000000E+00  0.00000000E+00  0.00000000E+00
  0.00000000E+00  0.00000000E+00  0.00000000E+00
  0.00000000E+00  0.00000000E+00  0.00000000E+00
  0.00000000E+00  0.00000000E+00  0.00000000E+00
  0.00000000E+00  0.00000000E+00  0.00000000E+00
  0.00000000E+00  0.00000000E+00  0.00000000E+00
  0.00000000E+00  0.00000000E+00  0.00000000E+00
  0.00000000E+00  0.00000000E+00  0.00000000E+00
  0.00000000E+00  0.00000000E+00  0.00000000E+00
  0.00000000E+00  0.00000000E+00  0.00000000E+00
  0.00000000E+00  0.00000000E+00  0.00000000E+00
  0.00000000E+00  0.00000000E+00  0.00000000E+00
  0.00000000E+00  0.00000000E+00  0.00000000E+00
  0.00000000E+00  0.00000000E+00  0.00000000E+00
  0.00000000E+00  0.00000000E+00  0.00000000E+00
  0.00000000E+00  0.00000000E+00  0.00000000E+00
  0.00000000E+00  0.00000000E+00  0.00000000E+00
  0.00000000E+00  0.00000000E+00  0.00000000E+00
  0.00000000E+00  0.00000000E+00  0.00000000E+00
  0.00000000E+00  0.00000000E+00  0.00000000E+00
  0.00000000E+00  0.00000000E+00  0.00000000E+00
  0.00000000E+00  0.00000000E+00  0.00000000E+00
  0.00000000E+00  0.00000000E+00  0.00000000E+00
  0.00000000E+00  0.00000000E+00  0.00000000E+00
  0.00000000E+00  0.00000000E+00  0.00000000E+00
  0.00000000E+00  0.00000000E+00  0.00000000E+00
  0.00000000E+00  0.00000000E+00  0.00000000E+00
  0.00000000E+00  0.00000000E+00  0.00000000E+00
  0.00000000E+00  0.00000000E+00  0.00000000E+00
  0.00000000E+00  0.00000000E+00  0.00000000E+00
  0.00000000E+00  0.00000000E+00  0.00000000E+00
  0.00000000E+00  0.00000000E+00  0.00000000E+00
  0.00000000E+00  0.00000000E+00  0.00000000E+00
  0.00000000E+00  0.00000000E+00  0.00000000E+00
  0.00000000E+00  0.00000000E+00  0.00000000E+00
  0.00000000E+00  0.00000000E+00  0.00000000E+00
  0.00000000E+00  0.00000000E+00  0.00000000E+00
  0.00000000E+00  0.00000000E+00  0.00000000E+00
