Co1Sn1Th1   [HEX,HEX,hP9] (STD_PRIM doi:
   1.00000000000000     
     3.7801423212508398   -6.5473904325368064    0.0000000000000000
     3.7801423212508398    6.5473904325368064    0.0000000000000000
     0.0000000000000000    0.0000000000000000    4.0655370920461458
   3   3   3
Direct
  0.9999997624622465  0.9999997624622465  0.5000000000000000
  0.3333277424670382  0.6666676797195765  0.0000000000000000
  0.6666676797195765  0.3333277424670382  0.0000000000000000
  0.2494564102523217  0.0000009417143850  0.0000000000000000
  0.0000009417143850  0.2494564102523217  0.0000000000000000
  0.7505433383215614  0.7505433383215614  0.0000000000000000
  0.5902545008740927  0.0000024033552167  0.5000000000000000
  0.0000024033552167  0.5902545008740927  0.5000000000000000
  0.4097472208335542  0.4097472208335542  0.5000000000000000
 
  0.00000000E+00  0.00000000E+00  0.00000000E+00
  0.00000000E+00  0.00000000E+00  0.00000000E+00
  0.00000000E+00  0.00000000E+00  0.00000000E+00
  0.00000000E+00  0.00000000E+00  0.00000000E+00
  0.00000000E+00  0.00000000E+00  0.00000000E+00
  0.00000000E+00  0.00000000E+00  0.00000000E+00
  0.00000000E+00  0.00000000E+00  0.00000000E+00
  0.00000000E+00  0.00000000E+00  0.00000000E+00
  0.00000000E+00  0.00000000E+00  0.00000000E+00
