Ca1Li1Si2   [ORC,ORC,oP16] (STD_PRIM doi
   1.00000000000000     
     3.8050499424445396   -0.0000000000000000    0.0000000000000000
     0.0000000000000000    7.9339076862575402    0.0000000000000000
     0.0000000000000000    0.0000000000000000   10.6501635249942517
   4   4   8
Direct
  0.2500000000000000  0.1348071957582748  0.8644224718427747
  0.7500000000000000  0.3651928042417252  0.3644224718427747
  0.7500000000000000  0.8651928042417252  0.1355775281572253
  0.2500000000000000  0.6348071957582748  0.6355775281572253
  0.2500000000000000  0.9982776897186627  0.3877403502671882
  0.7500000000000000  0.5017223102813373  0.8877403502671882
  0.7500000000000000  0.0017223102813373  0.6122596497328118
  0.2500000000000000  0.4982776897186627  0.1122596497328118
  0.2500000000000000  0.2305571792692037  0.5682849679005322
  0.7500000000000000  0.2694428207307963  0.0682849679005322
  0.7500000000000000  0.7694428207307964  0.4317150320994678
  0.2500000000000000  0.7305571792692036  0.9317150320994678
  0.2500000000000000  0.6655786721399654  0.3258866845719300
  0.7500000000000000  0.8344213278600346  0.8258866845719300
  0.7500000000000000  0.3344213278600346  0.6741133154280700
  0.2500000000000000  0.1655786721399654  0.1741133154280700
 
  0.00000000E+00  0.00000000E+00  0.00000000E+00
  0.00000000E+00  0.00000000E+00  0.00000000E+00
  0.00000000E+00  0.00000000E+00  0.00000000E+00
  0.00000000E+00  0.00000000E+00  0.00000000E+00
  0.00000000E+00  0.00000000E+00  0.00000000E+00
  0.00000000E+00  0.00000000E+00  0.00000000E+00
  0.00000000E+00  0.00000000E+00  0.00000000E+00
  0.00000000E+00  0.00000000E+00  0.00000000E+00
  0.00000000E+00  0.00000000E+00  0.00000000E+00
  0.00000000E+00  0.00000000E+00  0.00000000E+00
  0.00000000E+00  0.00000000E+00  0.00000000E+00
  0.00000000E+00  0.00000000E+00  0.00000000E+00
  0.00000000E+00  0.00000000E+00  0.00000000E+00
  0.00000000E+00  0.00000000E+00  0.00000000E+00
  0.00000000E+00  0.00000000E+00  0.00000000E+00
  0.00000000E+00  0.00000000E+00  0.00000000E+00
