O2Pt1   [TET,TET,tP6] (STD_PRIM doi:10.1
   1.00000000000000     
     4.5938942153167668    0.0000000000000000    0.0000000000000000
     0.0000000000000000    4.5938942153167668    0.0000000000000000
     0.0000000000000000    0.0000000000000000    3.1958466584300531
   4   2
Direct
  0.3088405439202193  0.3088405439202193  0.0000000000000000
  0.6911594560797807  0.6911594560797807 -0.0000000000000000
  0.1911594560797807  0.8088405439202193  0.5000000000000000
  0.8088405439202193  0.1911594560797807  0.5000000000000000
  0.0000000000000000  0.0000000000000000  0.0000000000000000
  0.5000000000000000  0.5000000000000000  0.5000000000000000
 
  0.00000000E+00  0.00000000E+00  0.00000000E+00
  0.00000000E+00  0.00000000E+00  0.00000000E+00
  0.00000000E+00  0.00000000E+00  0.00000000E+00
  0.00000000E+00  0.00000000E+00  0.00000000E+00
  0.00000000E+00  0.00000000E+00  0.00000000E+00
  0.00000000E+00  0.00000000E+00  0.00000000E+00
