Mg1Y1Zn1 #189 - (Mg1Y1Zn1_ICSD_160907) -
   1.00000000000000     
     3.7790424630303852   -6.5456704290591174    0.0000000000000000
     3.7790424630303852    6.5456704290591174    0.0000000000000000
     0.0000000000000000    0.0000000000000000    4.1701135421105100
   3   3   3
Direct
  0.2465422014977757  0.0000029531957200  0.5000000000000000
  0.0000029531957200  0.2465422014977757  0.5000000000000000
  0.7534582283630227  0.7534582283630227  0.5000000000000000
  0.5884815290285378  0.9999993400812193  0.0000000000000000
  0.9999993400812193  0.5884815290285378  0.0000000000000000
  0.4115181960500444  0.4115181960500444  0.0000000000000000
  0.3333324359341515  0.6666673775145829  0.5000000000000000
  0.6666673775145829  0.3333324359341515  0.5000000000000000
  0.9999977383349600  0.9999977383349600  0.0000000000000000
 
  0.00000000E+00  0.00000000E+00  0.00000000E+00
  0.00000000E+00  0.00000000E+00  0.00000000E+00
  0.00000000E+00  0.00000000E+00  0.00000000E+00
  0.00000000E+00  0.00000000E+00  0.00000000E+00
  0.00000000E+00  0.00000000E+00  0.00000000E+00
  0.00000000E+00  0.00000000E+00  0.00000000E+00
  0.00000000E+00  0.00000000E+00  0.00000000E+00
  0.00000000E+00  0.00000000E+00  0.00000000E+00
  0.00000000E+00  0.00000000E+00  0.00000000E+00
