Ag1Cu4U1   [FCC,FCC,cF24] (STD_PRIM doi:
   1.22474500000000     
    -0.0000000000000000    2.9831092613372312    2.9831092613372312
     2.9831092613372312    0.0000000000000000    2.9831092613372312
     2.9831092613372312    2.9831092613372312   -0.0000000000000000
   1   4   1
Direct
  0.2500000000000000  0.2500000000000000  0.2500000000000000
  0.6230070298503925  0.1309789104488298  0.6230070298503925
  0.6230070298503925  0.6230070298503925  0.1309789104488298
  0.1309789104488298  0.6230070298503925  0.6230070298503925
  0.6230070298503925  0.6230070298503925  0.6230070298503925
  0.0000000000000000 -0.0000000000000000  0.0000000000000000
 
  0.00000000E+00  0.00000000E+00  0.00000000E+00
  0.00000000E+00  0.00000000E+00  0.00000000E+00
  0.00000000E+00  0.00000000E+00  0.00000000E+00
  0.00000000E+00  0.00000000E+00  0.00000000E+00
  0.00000000E+00  0.00000000E+00  0.00000000E+00
  0.00000000E+00  0.00000000E+00  0.00000000E+00
