Ru1   [HEX,HEX,hP2] (STD_PRIM doi:10.101
   1.00000000000000     
     1.3592114434385127   -2.3541976182859825    0.0000000000000000
     1.3592114434385127    2.3541976182859825    0.0000000000000000
     0.0000000000000000    0.0000000000000000    4.2837686909696266
   2
Direct
  0.3333212645325125  0.6666787354674875  0.2500000000000000
  0.6666787354674875  0.3333212645325125  0.7500000000000000
 
  0.00000000E+00  0.00000000E+00  0.00000000E+00
  0.00000000E+00  0.00000000E+00  0.00000000E+00
