In1S3Sb1   [ORC,ORC,oP20] (STD_PRIM doi:
   1.00000000000000     
     3.8818845537361888    0.0000000000000000    0.0000000000000000
    -0.0000000000000000    9.5036563868139972    0.0000000000000000
     0.0000000000000000    0.0000000000000000   13.4963506657258439
   4  12   4
Direct
  0.2500000000000000  0.6485517177583072  0.5436843449189079
  0.7500000000000000  0.8514482822416928  0.0436843449189079
  0.7500000000000000  0.3514482822416927  0.4563156550810921
  0.2500000000000000  0.1485517177583073  0.9563156550810921
  0.2500000000000000  0.4998875672818659  0.3842802793747409
  0.7500000000000000  0.0001124327181341  0.8842802793747409
  0.7500000000000000  0.5001124327181341  0.6157197206252591
  0.2500000000000000  0.9998875672818659  0.1157197206252591
  0.2500000000000000  0.1600285674139358  0.5200884893974849
  0.7500000000000000  0.3399714325860642  0.0200884893974849
  0.7500000000000000  0.8399714325860643  0.4799115106025151
  0.2500000000000000  0.6600285674139357  0.9799115106025151
  0.2500000000000000  0.8112564410848860  0.7009624230043486
  0.7500000000000000  0.6887435589151140  0.2009624230043486
  0.7500000000000000  0.1887435589151139  0.2990375769956514
  0.2500000000000000  0.3112564410848861  0.7990375769956514
  0.2500000000000000  0.0280457772678699  0.3577628171497564
  0.7500000000000000  0.4719542227321301  0.8577628171497564
  0.7500000000000000  0.9719542227321301  0.6422371828502436
  0.2500000000000000  0.5280457772678699  0.1422371828502436
 
  0.00000000E+00  0.00000000E+00  0.00000000E+00
  0.00000000E+00  0.00000000E+00  0.00000000E+00
  0.00000000E+00  0.00000000E+00  0.00000000E+00
  0.00000000E+00  0.00000000E+00  0.00000000E+00
  0.00000000E+00  0.00000000E+00  0.00000000E+00
  0.00000000E+00  0.00000000E+00  0.00000000E+00
  0.00000000E+00  0.00000000E+00  0.00000000E+00
  0.00000000E+00  0.00000000E+00  0.00000000E+00
  0.00000000E+00  0.00000000E+00  0.00000000E+00
  0.00000000E+00  0.00000000E+00  0.00000000E+00
  0.00000000E+00  0.00000000E+00  0.00000000E+00
  0.00000000E+00  0.00000000E+00  0.00000000E+00
  0.00000000E+00  0.00000000E+00  0.00000000E+00
  0.00000000E+00  0.00000000E+00  0.00000000E+00
  0.00000000E+00  0.00000000E+00  0.00000000E+00
  0.00000000E+00  0.00000000E+00  0.00000000E+00
  0.00000000E+00  0.00000000E+00  0.00000000E+00
  0.00000000E+00  0.00000000E+00  0.00000000E+00
  0.00000000E+00  0.00000000E+00  0.00000000E+00
  0.00000000E+00  0.00000000E+00  0.00000000E+00
