As1Mn1Ru1   [HEX,HEX,hP9] (STD_PRIM doi:
   1.00000000000000     
     3.3195261103913554   -5.7507264234337736    0.0000000000000000
     3.3195261103913554    5.7507264234337736    0.0000000000000000
     0.0000000000000000    0.0000000000000000    3.6573303150336671
   3   3   3
Direct
  0.9999826106061119  0.9999826106061119  0.5000000000000000
  0.3333442903543338  0.6666832287123118  0.0000000000000000
  0.6666832287123118  0.3333442903543338  0.0000000000000000
  0.5951071229399153  0.9999927909051759  0.5000000000000000
  0.9999927909051759  0.5951071229399153  0.5000000000000000
  0.4049166968657577  0.4049166968657577  0.5000000000000000
  0.2551699392588641  0.0000011029765019  0.0000000000000000
  0.0000011029765019  0.2551699392588641  0.0000000000000000
  0.7448022173810277  0.7448022173810277  0.0000000000000000
 
  0.00000000E+00  0.00000000E+00  0.00000000E+00
  0.00000000E+00  0.00000000E+00  0.00000000E+00
  0.00000000E+00  0.00000000E+00  0.00000000E+00
  0.00000000E+00  0.00000000E+00  0.00000000E+00
  0.00000000E+00  0.00000000E+00  0.00000000E+00
  0.00000000E+00  0.00000000E+00  0.00000000E+00
  0.00000000E+00  0.00000000E+00  0.00000000E+00
  0.00000000E+00  0.00000000E+00  0.00000000E+00
  0.00000000E+00  0.00000000E+00  0.00000000E+00
