F2H1K1   [BCT,BCT2,tI16] (STD_PRIM doi:1
   1.00000000000000     
    -2.8744709217894759    2.8744709217894759    3.4607393385875520
     2.8744709217894759   -2.8744709217894759    3.4607393385875520
     2.8744709217894759    2.8744709217894759   -3.4607393385875520
   4   2   2
Direct
  0.6416868494921886  0.1416868494921815  0.7833736989843629
  0.3583131505078114  0.8583131505078114  0.2166263010156371
  0.1416868494921815  0.3583131505078114  0.5000000000000000
  0.8583131505078114  0.6416868494921886  0.5000000000000000
  0.5000000000000000  0.0000000000000000  0.5000000000000000
  0.0000000000000000  0.5000000000000000  0.5000000000000000
  0.2500000000000000  0.2500000000000000  0.0000000000000000
  0.7500000000000000  0.7500000000000000  0.0000000000000000
 
  0.00000000E+00  0.00000000E+00  0.00000000E+00
  0.00000000E+00  0.00000000E+00  0.00000000E+00
  0.00000000E+00  0.00000000E+00  0.00000000E+00
  0.00000000E+00  0.00000000E+00  0.00000000E+00
  0.00000000E+00  0.00000000E+00  0.00000000E+00
  0.00000000E+00  0.00000000E+00  0.00000000E+00
  0.00000000E+00  0.00000000E+00  0.00000000E+00
  0.00000000E+00  0.00000000E+00  0.00000000E+00
