Au1Dy1Pb1   [FCC,FCC,cF12] (STD_PRIM doi
   1.22474500000000     
     0.0000000000000000    2.7836097590849462    2.7836097590849462
     2.7836097590849462    0.0000000000000000    2.7836097590849462
     2.7836097590849462    2.7836097590849462    0.0000000000000000
   1   1   1
Direct
  0.7500000000000000  0.7500000000000000  0.7500000000000000
  0.5000000000000000  0.5000000000000000  0.5000000000000000
  0.0000000000000000  0.0000000000000000  0.0000000000000000
 
  0.00000000E+00  0.00000000E+00  0.00000000E+00
  0.00000000E+00  0.00000000E+00  0.00000000E+00
  0.00000000E+00  0.00000000E+00  0.00000000E+00
