Br1In1   [ORCC,ORCC,oS8] (STD_PRIM doi:1
   1.00000000000000     
     2.3035173201535923   -6.2331450114542690    0.0000000000000000
     2.3035173201535923    6.2331450114542690    0.0000000000000000
     0.0000000000000000    0.0000000000000000    4.6482394410304648
   2   2
Direct
  0.8524117230489736  0.1475882769510264  0.7500000000000000
  0.1475882769510264  0.8524117230489736  0.2500000000000000
  0.6088857728820471  0.3911142271179529  0.7500000000000000
  0.3911142271179529  0.6088857728820471  0.2500000000000000
 
  0.00000000E+00  0.00000000E+00  0.00000000E+00
  0.00000000E+00  0.00000000E+00  0.00000000E+00
  0.00000000E+00  0.00000000E+00  0.00000000E+00
  0.00000000E+00  0.00000000E+00  0.00000000E+00
