Ba2Si46   [CUB,CUB,cP48] (STD_PRIM doi:1
   1.00000000000000     
    10.2756296698581053    0.0000000000000000    0.0000000000000000
     0.0000000000000000   10.2756296698581053    0.0000000000000000
     0.0000000000000000    0.0000000000000000   10.2756296698581053
   2  46
Direct
  0.0000000000000000  0.0000000000000000  0.0000000000000000
  0.5000000000000000  0.5000000000000000  0.5000000000000000
  0.2500000000000000  0.0000000000000000  0.5000000000000000
  0.7500000000000000  0.0000000000000000  0.5000000000000000
  0.5000000000000000  0.2500000000000000  0.0000000000000000
  0.5000000000000000  0.7500000000000000  0.0000000000000000
  0.0000000000000000  0.5000000000000000  0.2500000000000000
  0.0000000000000000  0.5000000000000000  0.7500000000000000
  0.1849097993263840  0.1849097993263840  0.1849097993263840
  0.8150902006736160  0.8150902006736160  0.1849097993263840
  0.8150902006736160  0.1849097993263840  0.8150902006736160
  0.1849097993263840  0.8150902006736160  0.8150902006736160
  0.6849097993263840  0.6849097993263840  0.3150902006736160
  0.3150902006736160  0.3150902006736160  0.3150902006736160
  0.6849097993263840  0.3150902006736160  0.6849097993263840
  0.3150902006736160  0.6849097993263840  0.6849097993263840
  0.8150902006736160  0.8150902006736160  0.8150902006736160
  0.1849097993263840  0.1849097993263840  0.8150902006736160
  0.1849097993263840  0.8150902006736160  0.1849097993263840
  0.8150902006736160  0.1849097993263840  0.1849097993263840
  0.3150902006736160  0.3150902006736160  0.6849097993263840
  0.6849097993263840  0.6849097993263840  0.6849097993263840
  0.3150902006736160  0.6849097993263840  0.3150902006736160
  0.6849097993263840  0.3150902006736160  0.3150902006736160
  0.0000000000000000  0.3096289552292149  0.1166211772375902
  0.0000000000000000  0.6903710447707851  0.1166211772375902
  0.0000000000000000  0.3096289552292149  0.8833788227624098
  0.0000000000000000  0.6903710447707851  0.8833788227624098
  0.1166211772375902  0.0000000000000000  0.3096289552292149
  0.1166211772375902  0.0000000000000000  0.6903710447707851
  0.8833788227624098  0.0000000000000000  0.3096289552292149
  0.8833788227624098  0.0000000000000000  0.6903710447707851
  0.3096289552292149  0.1166211772375902  0.0000000000000000
  0.6903710447707851  0.1166211772375902  0.0000000000000000
  0.3096289552292149  0.8833788227624098  0.0000000000000000
  0.6903710447707851  0.8833788227624098  0.0000000000000000
  0.8096289552292149  0.5000000000000000  0.3833788227624098
  0.1903710447707851  0.5000000000000000  0.3833788227624098
  0.8096289552292149  0.5000000000000000  0.6166211772375902
  0.1903710447707851  0.5000000000000000  0.6166211772375902
  0.5000000000000000  0.6166211772375902  0.1903710447707851
  0.5000000000000000  0.6166211772375902  0.8096289552292149
  0.5000000000000000  0.3833788227624098  0.1903710447707851
  0.5000000000000000  0.3833788227624098  0.8096289552292149
  0.6166211772375902  0.8096289552292149  0.5000000000000000
  0.6166211772375902  0.1903710447707851  0.5000000000000000
  0.3833788227624098  0.8096289552292149  0.5000000000000000
  0.3833788227624098  0.1903710447707851  0.5000000000000000
 
  0.00000000E+00  0.00000000E+00  0.00000000E+00
  0.00000000E+00  0.00000000E+00  0.00000000E+00
  0.00000000E+00  0.00000000E+00  0.00000000E+00
  0.00000000E+00  0.00000000E+00  0.00000000E+00
  0.00000000E+00  0.00000000E+00  0.00000000E+00
  0.00000000E+00  0.00000000E+00  0.00000000E+00
  0.00000000E+00  0.00000000E+00  0.00000000E+00
  0.00000000E+00  0.00000000E+00  0.00000000E+00
  0.00000000E+00  0.00000000E+00  0.00000000E+00
  0.00000000E+00  0.00000000E+00  0.00000000E+00
  0.00000000E+00  0.00000000E+00  0.00000000E+00
  0.00000000E+00  0.00000000E+00  0.00000000E+00
  0.00000000E+00  0.00000000E+00  0.00000000E+00
  0.00000000E+00  0.00000000E+00  0.00000000E+00
  0.00000000E+00  0.00000000E+00  0.00000000E+00
  0.00000000E+00  0.00000000E+00  0.00000000E+00
  0.00000000E+00  0.00000000E+00  0.00000000E+00
  0.00000000E+00  0.00000000E+00  0.00000000E+00
  0.00000000E+00  0.00000000E+00  0.00000000E+00
  0.00000000E+00  0.00000000E+00  0.00000000E+00
  0.00000000E+00  0.00000000E+00  0.00000000E+00
  0.00000000E+00  0.00000000E+00  0.00000000E+00
  0.00000000E+00  0.00000000E+00  0.00000000E+00
  0.00000000E+00  0.00000000E+00  0.00000000E+00
  0.00000000E+00  0.00000000E+00  0.00000000E+00
  0.00000000E+00  0.00000000E+00  0.00000000E+00
  0.00000000E+00  0.00000000E+00  0.00000000E+00
  0.00000000E+00  0.00000000E+00  0.00000000E+00
  0.00000000E+00  0.00000000E+00  0.00000000E+00
  0.00000000E+00  0.00000000E+00  0.00000000E+00
  0.00000000E+00  0.00000000E+00  0.00000000E+00
  0.00000000E+00  0.00000000E+00  0.00000000E+00
  0.00000000E+00  0.00000000E+00  0.00000000E+00
  0.00000000E+00  0.00000000E+00  0.00000000E+00
  0.00000000E+00  0.00000000E+00  0.00000000E+00
  0.00000000E+00  0.00000000E+00  0.00000000E+00
  0.00000000E+00  0.00000000E+00  0.00000000E+00
  0.00000000E+00  0.00000000E+00  0.00000000E+00
  0.00000000E+00  0.00000000E+00  0.00000000E+00
  0.00000000E+00  0.00000000E+00  0.00000000E+00
  0.00000000E+00  0.00000000E+00  0.00000000E+00
  0.00000000E+00  0.00000000E+00  0.00000000E+00
  0.00000000E+00  0.00000000E+00  0.00000000E+00
  0.00000000E+00  0.00000000E+00  0.00000000E+00
  0.00000000E+00  0.00000000E+00  0.00000000E+00
  0.00000000E+00  0.00000000E+00  0.00000000E+00
  0.00000000E+00  0.00000000E+00  0.00000000E+00
  0.00000000E+00  0.00000000E+00  0.00000000E+00
