O1Zn1   [HEX,HEX,hP4] (STD_PRIM doi:10.1
   1.01639600000000     
     1.6177837467066529   -2.8021266316801761    0.0000000000000000
     1.6177837467066529    2.8021266316801761    0.0000000000000000
     0.0000000000000000    0.0000000000000000    5.2197352569277520
   2   2
Direct
  0.3333326568810013  0.6666673431189988  0.3797687976039360
  0.6666673431189988  0.3333326568810013  0.8797687976039359
  0.3333322656011727  0.6666677343988273  0.0005412023960797
  0.6666677343988273  0.3333322656011727  0.5005412023960798
 
  0.00000000E+00  0.00000000E+00  0.00000000E+00
  0.00000000E+00  0.00000000E+00  0.00000000E+00
  0.00000000E+00  0.00000000E+00  0.00000000E+00
  0.00000000E+00  0.00000000E+00  0.00000000E+00
