Ce1Se1   [FCC,FCC,cF8] (STD_PRIM doi:10.
   1.22474500000000     
    -0.0000000000000000    2.3900320845150347    2.3900320845150347
     2.3900320845150347    0.0000000000000000    2.3900320845150347
     2.3900320845150347    2.3900320845150347   -0.0000000000000000
   1   1
Direct
  0.0000000000000000  0.0000000000000000 -0.0000000000000000
  0.5000000000000000  0.5000000000000000  0.5000000000000000
 
  0.00000000E+00  0.00000000E+00  0.00000000E+00
  0.00000000E+00  0.00000000E+00  0.00000000E+00
