Au1Yb1 #62 - (Au1Yb1_ICSD_612473) - Au1Y
   1.00000000000000     
     4.6582114058070889    0.0000000000000000    0.0000000000000000
     0.0000000000000000    5.9448630821595110    0.0000000000000000
     0.0000000000000000    0.0000000000000000    7.4984597091717218
   4   4
Direct
  0.7500000000000000  0.3517844405732915  0.0420569906469999
  0.2500000000000000  0.8517844405732915  0.4579430093530000
  0.2500000000000000  0.6482155594267085  0.9579430093530000
  0.7500000000000000  0.1482155594267085  0.5420569906470000
  0.7500000000000000  0.8601161852229865  0.1815709451590360
  0.2500000000000000  0.3601161852229864  0.3184290548409640
  0.2500000000000000  0.1398838147770136  0.8184290548409640
  0.7500000000000000  0.6398838147770135  0.6815709451590360
 
  0.00000000E+00  0.00000000E+00  0.00000000E+00
  0.00000000E+00  0.00000000E+00  0.00000000E+00
  0.00000000E+00  0.00000000E+00  0.00000000E+00
  0.00000000E+00  0.00000000E+00  0.00000000E+00
  0.00000000E+00  0.00000000E+00  0.00000000E+00
  0.00000000E+00  0.00000000E+00  0.00000000E+00
  0.00000000E+00  0.00000000E+00  0.00000000E+00
  0.00000000E+00  0.00000000E+00  0.00000000E+00
