Cd1Dy2S4   [FCC,FCC,cF56] (STD_PRIM doi:
   1.22474500000000     
    -0.0000000000000000    4.6086537953307536    4.6086537953307536
     4.6086537953307536   -0.0000000000000000    4.6086537953307536
     4.6086537953307536    4.6086537953307536    0.0000000000000000
   2   4   8
Direct
  0.0000000000000000  0.0000000000000000  0.0000000000000000
  0.2500000000000000  0.2500000000000000  0.2500000000000000
  0.6250000000000000  0.1250000000000000  0.6250000000000000
  0.1250000000000000  0.6250000000000000  0.6250000000000000
  0.6250000000000000  0.6250000000000000  0.6250000000000000
  0.6250000000000000  0.6250000000000000  0.1250000000000000
  0.3823042147711561  0.8530873556865389  0.3823042147711561
  0.8530873556865389  0.3823042147711561  0.3823042147711561
  0.3823042147711561  0.3823042147711561  0.3823042147711561
  0.3823042147711561  0.3823042147711561  0.8530873556865389
  0.3969126443134611  0.8676957852288439  0.8676957852288439
  0.8676957852288439  0.3969126443134611  0.8676957852288439
  0.8676957852288439  0.8676957852288439  0.8676957852288439
  0.8676957852288439  0.8676957852288439  0.3969126443134611
 
  0.00000000E+00  0.00000000E+00  0.00000000E+00
  0.00000000E+00  0.00000000E+00  0.00000000E+00
  0.00000000E+00  0.00000000E+00  0.00000000E+00
  0.00000000E+00  0.00000000E+00  0.00000000E+00
  0.00000000E+00  0.00000000E+00  0.00000000E+00
  0.00000000E+00  0.00000000E+00  0.00000000E+00
  0.00000000E+00  0.00000000E+00  0.00000000E+00
  0.00000000E+00  0.00000000E+00  0.00000000E+00
  0.00000000E+00  0.00000000E+00  0.00000000E+00
  0.00000000E+00  0.00000000E+00  0.00000000E+00
  0.00000000E+00  0.00000000E+00  0.00000000E+00
  0.00000000E+00  0.00000000E+00  0.00000000E+00
  0.00000000E+00  0.00000000E+00  0.00000000E+00
  0.00000000E+00  0.00000000E+00  0.00000000E+00
