Al2Zr1   [HEX,HEX,hP12] (STD_PRIM doi:10
   1.00000000000000     
     2.6521453854369486   -4.5936505566361392    0.0000000000000000
     2.6521182964570618    4.5936349168063089   -0.0000000000000000
     0.0000000000000000    0.0000000000000000    8.7732644179302905
   8   4
Direct
 -0.0000000000000000 -0.0000000000000000  0.0000000000000000
  0.0000000000000000  0.0000000000000000  0.5000000000000000
  0.6580372545330868  0.8290244951150348  0.2500000000000000
  0.1709872405819480  0.8290244951150348  0.2500000000000000
  0.1709849310108397  0.3419698620216864  0.2500000000000000
  0.3419627454669131  0.1709755048849651  0.7500000000000000
  0.8290127594180520  0.1709755048849651  0.7500000000000000
  0.8290150689891532  0.6580301379783136  0.7500000000000000
  0.6666683847299433  0.3333367694598794  0.0642725419376173
  0.3333316152700567  0.6666632305401204  0.5642725419376173
  0.3333316152700567  0.6666632305401204  0.9357274580623827
  0.6666683847299433  0.3333367694598794  0.4357274580623827
 
  0.00000000E+00  0.00000000E+00  0.00000000E+00
  0.00000000E+00  0.00000000E+00  0.00000000E+00
  0.00000000E+00  0.00000000E+00  0.00000000E+00
  0.00000000E+00  0.00000000E+00  0.00000000E+00
  0.00000000E+00  0.00000000E+00  0.00000000E+00
  0.00000000E+00  0.00000000E+00  0.00000000E+00
  0.00000000E+00  0.00000000E+00  0.00000000E+00
  0.00000000E+00  0.00000000E+00  0.00000000E+00
  0.00000000E+00  0.00000000E+00  0.00000000E+00
  0.00000000E+00  0.00000000E+00  0.00000000E+00
  0.00000000E+00  0.00000000E+00  0.00000000E+00
  0.00000000E+00  0.00000000E+00  0.00000000E+00
