C1Si1   [FCC,FCC,cF8] (STD_PRIM doi:10.1
   1.22474500000000     
     0.0000000000000000    1.7877804110435520    1.7877804110435520
     1.7877804110435520    0.0000000000000000    1.7877804110435520
     1.7877804110435520    1.7877804110435520    0.0000000000000000
   1   1
Direct
  0.2500000000000000  0.2500000000000000  0.2500000000000000
  0.0000000000000000  0.0000000000000000  0.0000000000000000
 
  0.00000000E+00  0.00000000E+00  0.00000000E+00
  0.00000000E+00  0.00000000E+00  0.00000000E+00
