Al1Pt1Th1   [HEX,HEX,hP9] (STD_PRIM doi:
   1.00000000000000     
     3.7298375090275178   -6.4602965897810583    0.0000000000000000
     3.7298375090275178    6.4602965897810583    0.0000000000000000
     0.0000000000000000    0.0000000000000000    4.2031440842461043
   3   3   3
Direct
  0.2288839687873483  0.0000013555645793  0.0000000000000000
  0.0000013555645793  0.2288839687873483  0.0000000000000000
  0.7711127663275189  0.7711127663275189  0.0000000000000000
  0.3333278550479623  0.6666730121622181  0.0000000000000000
  0.6666730121622181  0.3333278550479623  0.0000000000000000
  0.0000048932835506  0.0000048932835506  0.5000000000000000
  0.5833670211007180  0.9999989931369040  0.5000000000000000
  0.9999989931369040  0.5833670211007180  0.5000000000000000
  0.4166301345892076  0.4166301345892076  0.5000000000000000
 
  0.00000000E+00  0.00000000E+00  0.00000000E+00
  0.00000000E+00  0.00000000E+00  0.00000000E+00
  0.00000000E+00  0.00000000E+00  0.00000000E+00
  0.00000000E+00  0.00000000E+00  0.00000000E+00
  0.00000000E+00  0.00000000E+00  0.00000000E+00
  0.00000000E+00  0.00000000E+00  0.00000000E+00
  0.00000000E+00  0.00000000E+00  0.00000000E+00
  0.00000000E+00  0.00000000E+00  0.00000000E+00
  0.00000000E+00  0.00000000E+00  0.00000000E+00
