Cr2O6W1   [TET,TET,tP18] (STD_PRIM doi:1
   1.00000000000000     
     4.6555394989064984    0.0000000000000000    0.0000000000000000
     0.0000000000000000    4.6555394989064984    0.0000000000000000
     0.0000000000000000    0.0000000000000000    9.0625572192249102
   4  12   2
Direct
  0.0000000000000000  0.0000000000000000  0.3344569553247040
  0.5000000000000000  0.5000000000000000  0.8344569553247041
  0.5000000000000000  0.5000000000000000  0.1655430446752959
 -0.0000000000000000 -0.0000000000000000  0.6655430446752959
  0.2992567940389051  0.2992567940389051 -0.0000000000000000
  0.7007432059610949  0.7007432059610949  0.0000000000000000
  0.2007432059610949  0.7992567940389051  0.5000000000000000
  0.7992567940389051  0.2007432059610949  0.5000000000000000
  0.3055135974320926  0.3055135974320926  0.3405534023258019
  0.6944864025679074  0.6944864025679074  0.3405534023258019
  0.1944864025679074  0.8055135974320926  0.8405534023258019
  0.8055135974320926  0.1944864025679074  0.8405534023258019
  0.1944864025679074  0.8055135974320926  0.1594465976741981
  0.8055135974320926  0.1944864025679074  0.1594465976741981
  0.3055135974320926  0.3055135974320926  0.6594465976741981
  0.6944864025679074  0.6944864025679074  0.6594465976741981
  0.0000000000000000  0.0000000000000000  0.0000000000000000
  0.5000000000000000  0.5000000000000000  0.5000000000000000
 
  0.00000000E+00  0.00000000E+00  0.00000000E+00
  0.00000000E+00  0.00000000E+00  0.00000000E+00
  0.00000000E+00  0.00000000E+00  0.00000000E+00
  0.00000000E+00  0.00000000E+00  0.00000000E+00
  0.00000000E+00  0.00000000E+00  0.00000000E+00
  0.00000000E+00  0.00000000E+00  0.00000000E+00
  0.00000000E+00  0.00000000E+00  0.00000000E+00
  0.00000000E+00  0.00000000E+00  0.00000000E+00
  0.00000000E+00  0.00000000E+00  0.00000000E+00
  0.00000000E+00  0.00000000E+00  0.00000000E+00
  0.00000000E+00  0.00000000E+00  0.00000000E+00
  0.00000000E+00  0.00000000E+00  0.00000000E+00
  0.00000000E+00  0.00000000E+00  0.00000000E+00
  0.00000000E+00  0.00000000E+00  0.00000000E+00
  0.00000000E+00  0.00000000E+00  0.00000000E+00
  0.00000000E+00  0.00000000E+00  0.00000000E+00
  0.00000000E+00  0.00000000E+00  0.00000000E+00
  0.00000000E+00  0.00000000E+00  0.00000000E+00
