Cr1F4Sr1   [BCT,BCT2,tI24] (STD_PRIM doi
   1.00000000000000     
    -2.8828444744643664    2.8828444744643664    5.5411148578719143
     2.8828444744643664   -2.8828444744643664    5.5411148578719143
     2.8828444744643664    2.8828444744643664   -5.5411148578719143
   2   8   2
Direct
  0.5000000000000000  0.0000000000000000  0.5000000000000000
  0.0000000000000000  0.5000000000000000  0.5000000000000000
  0.1958287642733083  0.0522649871624949  0.5000000000000000
  0.5522649871624949  0.6958287642733083  0.5000000000000000
  0.6958287642733083  0.1958287642733083  0.1435637771108134
  0.0522649871624949  0.5522649871624949  0.8564362228891866
  0.9477350128375051  0.4477350128375051  0.1435637771108134
  0.3041712357266917  0.8041712357266917  0.8564362228891866
  0.4477350128375051  0.3041712357266917  0.5000000000000000
  0.8041712357266917  0.9477350128375051  0.5000000000000000
  0.7500000000000000  0.7500000000000000  0.0000000000000000
  0.2500000000000000  0.2500000000000000  0.0000000000000000
 
  0.00000000E+00  0.00000000E+00  0.00000000E+00
  0.00000000E+00  0.00000000E+00  0.00000000E+00
  0.00000000E+00  0.00000000E+00  0.00000000E+00
  0.00000000E+00  0.00000000E+00  0.00000000E+00
  0.00000000E+00  0.00000000E+00  0.00000000E+00
  0.00000000E+00  0.00000000E+00  0.00000000E+00
  0.00000000E+00  0.00000000E+00  0.00000000E+00
  0.00000000E+00  0.00000000E+00  0.00000000E+00
  0.00000000E+00  0.00000000E+00  0.00000000E+00
  0.00000000E+00  0.00000000E+00  0.00000000E+00
  0.00000000E+00  0.00000000E+00  0.00000000E+00
  0.00000000E+00  0.00000000E+00  0.00000000E+00
