Hf1Pd1Si1   [ORC,ORC,oP12] (STD_PRIM doi
   1.00000000000000     
     3.8790834407555552   -0.0000000000000000    0.0000000000000000
     0.0000000000000000    6.5953922938978735    0.0000000000000000
     0.0000000000000000    0.0000000000000000    7.6055338370196006
   4   4   4
Direct
  0.2500000000000000  0.0282740257761841  0.8202722380519911
  0.7500000000000000  0.4717259742238159  0.3202722380519911
  0.7500000000000000  0.9717259742238159  0.1797277619480089
  0.2500000000000000  0.5282740257761841  0.6797277619480089
  0.2500000000000000  0.1433038532646303  0.4380159710373954
  0.7500000000000000  0.3566961467353696  0.9380159710373953
  0.7500000000000000  0.8566961467353698  0.5619840289626047
  0.2500000000000000  0.6433038532646302  0.0619840289626047
  0.2500000000000000  0.7581713286423173  0.3756777121235124
  0.7500000000000000  0.7418286713576827  0.8756777121235124
  0.7500000000000000  0.2418286713576827  0.6243222878764876
  0.2500000000000000  0.2581713286423173  0.1243222878764876
 
  0.00000000E+00  0.00000000E+00  0.00000000E+00
  0.00000000E+00  0.00000000E+00  0.00000000E+00
  0.00000000E+00  0.00000000E+00  0.00000000E+00
  0.00000000E+00  0.00000000E+00  0.00000000E+00
  0.00000000E+00  0.00000000E+00  0.00000000E+00
  0.00000000E+00  0.00000000E+00  0.00000000E+00
  0.00000000E+00  0.00000000E+00  0.00000000E+00
  0.00000000E+00  0.00000000E+00  0.00000000E+00
  0.00000000E+00  0.00000000E+00  0.00000000E+00
  0.00000000E+00  0.00000000E+00  0.00000000E+00
  0.00000000E+00  0.00000000E+00  0.00000000E+00
  0.00000000E+00  0.00000000E+00  0.00000000E+00
