Hf1Re1Si1 #189 - (Hf1Re1Si1_ICSD_638814)
    1.000000000000000     
     3.4925640827231890   -6.0492984399667566    0.0000000000000000
     3.4925598991467108    6.0492960245777523    0.0000000000000000
     0.0000000000000000    0.0000000000000000    3.3916088948436656
   3   3   3
Direct
  0.9999973166719275  0.4021147779558326  0.5000000000000000
  0.5978825387160949  0.5978852220441674  0.5000000000000000
  0.4021192718523022  0.0000000000000000  0.5000000000000000
  0.9999998956937763  0.7433848245590763  0.0000000000000000
  0.2566150711347001  0.2566151754409237  0.0000000000000000
  0.7433873500798027  0.0000000000000000  0.0000000000000000
  0.6666643897427186  0.3333337131762054  0.0000000000000000
  0.3333306765665131  0.6666662868237946  0.0000000000000000
  0.0000034895421720  0.0000000000000000  0.5000000000000000
 
  0.00000000E+00  0.00000000E+00  0.00000000E+00
  0.00000000E+00  0.00000000E+00  0.00000000E+00
  0.00000000E+00  0.00000000E+00  0.00000000E+00
  0.00000000E+00  0.00000000E+00  0.00000000E+00
  0.00000000E+00  0.00000000E+00  0.00000000E+00
  0.00000000E+00  0.00000000E+00  0.00000000E+00
  0.00000000E+00  0.00000000E+00  0.00000000E+00
  0.00000000E+00  0.00000000E+00  0.00000000E+00
  0.00000000E+00  0.00000000E+00  0.00000000E+00
