Ge1O2   [ORC,ORC,oP12] (STD_PRIM doi:10.
   1.00000000000000     
     4.3821862176670958    0.0000000000000000    0.0000000000000000
    -0.0000000000000000    4.8421377655856350    0.0000000000000000
     0.0000000000000000    0.0000000000000000    5.4091922097281024
   4   8
Direct
  0.0000000000000000  0.2500000000000000  0.1594613446083466
  0.5000000000000000  0.7500000000000000  0.3405386553916534
  0.0000000000000000  0.7500000000000000  0.8405386553916534
  0.5000000000000000  0.2500000000000000  0.6594613446083466
  0.7680640116654526  0.4216586838608219  0.8881272565798637
  0.7319359883345474  0.9216586838608219  0.6118727434201363
  0.2319359883345473  0.0783413161391781  0.8881272565798637
  0.2680640116654526  0.5783413161391781  0.6118727434201363
  0.2319359883345473  0.5783413161391781  0.1118727434201363
  0.2680640116654526  0.0783413161391781  0.3881272565798637
  0.7680640116654526  0.9216586838608219  0.1118727434201363
  0.7319359883345474  0.4216586838608219  0.3881272565798637
 
  0.00000000E+00  0.00000000E+00  0.00000000E+00
  0.00000000E+00  0.00000000E+00  0.00000000E+00
  0.00000000E+00  0.00000000E+00  0.00000000E+00
  0.00000000E+00  0.00000000E+00  0.00000000E+00
  0.00000000E+00  0.00000000E+00  0.00000000E+00
  0.00000000E+00  0.00000000E+00  0.00000000E+00
  0.00000000E+00  0.00000000E+00  0.00000000E+00
  0.00000000E+00  0.00000000E+00  0.00000000E+00
  0.00000000E+00  0.00000000E+00  0.00000000E+00
  0.00000000E+00  0.00000000E+00  0.00000000E+00
  0.00000000E+00  0.00000000E+00  0.00000000E+00
  0.00000000E+00  0.00000000E+00  0.00000000E+00
