N2Re1   [CUB,CUB,cP12] (STD_PRIM doi:10.
   1.00000000000000     
     5.0056268235618511   -0.0000000000000000    0.0000000000000000
     0.0000000000000000    5.0056268235618511    0.0000000000000000
     0.0000000000000000   -0.0000000000000000    5.0056268235618511
   8   4
Direct
  0.3525431909568896  0.3525431909568896  0.3525431909568896
  0.1474568090431104  0.6474568090431103  0.8525431909568897
  0.6474568090431103  0.8525431909568897  0.1474568090431104
  0.8525431909568897  0.1474568090431104  0.6474568090431103
  0.6474568090431103  0.6474568090431103  0.6474568090431103
  0.8525431909568897  0.3525431909568896  0.1474568090431104
  0.3525431909568896  0.1474568090431104  0.8525431909568897
  0.1474568090431104  0.8525431909568897  0.3525431909568896
  0.0000000000000000  0.0000000000000000  0.0000000000000000
  0.5000000000000000  0.0000000000000000  0.5000000000000000
  0.0000000000000000  0.5000000000000000  0.5000000000000000
  0.5000000000000000  0.5000000000000000  0.0000000000000000
 
  0.00000000E+00  0.00000000E+00  0.00000000E+00
  0.00000000E+00  0.00000000E+00  0.00000000E+00
  0.00000000E+00  0.00000000E+00  0.00000000E+00
  0.00000000E+00  0.00000000E+00  0.00000000E+00
  0.00000000E+00  0.00000000E+00  0.00000000E+00
  0.00000000E+00  0.00000000E+00  0.00000000E+00
  0.00000000E+00  0.00000000E+00  0.00000000E+00
  0.00000000E+00  0.00000000E+00  0.00000000E+00
  0.00000000E+00  0.00000000E+00  0.00000000E+00
  0.00000000E+00  0.00000000E+00  0.00000000E+00
  0.00000000E+00  0.00000000E+00  0.00000000E+00
  0.00000000E+00  0.00000000E+00  0.00000000E+00
