Mn1Se1   [HEX,HEX,hP4] (STD_PRIM doi:10.
   1.00000000000000     
     1.9498045984593890   -3.3775038644462705   -0.0000000000000000
     1.9498045984593890    3.3775038644462705    0.0000000000000000
     0.0000000000000000   -0.0000000000000000    6.4991712357245977
   2   2
Direct
  0.0000000000000000  0.0000000000000000 -0.0000000000000000
 -0.0000000000000000  0.0000000000000000  0.5000000000000000
  0.3333226590223639  0.6666773409776361  0.2500000000000000
  0.6666773409776361  0.3333226590223639  0.7500000000000000
 
  0.00000000E+00  0.00000000E+00  0.00000000E+00
  0.00000000E+00  0.00000000E+00  0.00000000E+00
  0.00000000E+00  0.00000000E+00  0.00000000E+00
  0.00000000E+00  0.00000000E+00  0.00000000E+00
