B2Hf1   [HEX,HEX,hP3] (STD_PRIM doi:10.1
   1.00000000000000     
     1.5722904131818198   -2.7232868798843755    0.0000000000000000
     1.5720582477318532    2.7231528390993405    0.0000000000000000
     0.0000000000000000    0.0000000000000000    3.4915606874519476
   2   1
Direct
  0.6666665951733322  0.3333331903466572  0.5000000000000000
  0.3333334048266678  0.6666668096533428  0.5000000000000000
  0.0000000000000000  0.0000000000000000  0.0000000000000000
 
  0.00000000E+00  0.00000000E+00  0.00000000E+00
  0.00000000E+00  0.00000000E+00  0.00000000E+00
  0.00000000E+00  0.00000000E+00  0.00000000E+00
