Ge1Sc1   [ORCC,ORCC,oS8] (STD_PRIM doi:1
   1.00000000000000     
     2.0343130984064723   -5.1459573385972623   -0.0000000000000000
     2.0343130984064723    5.1459573385972623    0.0000000000000000
     0.0000000000000000   -0.0000000000000000    3.8285657537332640
   2   2
Direct
  0.4102841542578972  0.5897158457421028  0.7500000000000000
  0.5897158457421028  0.4102841542578972  0.2500000000000000
  0.1382851403241705  0.8617148596758295  0.7500000000000000
  0.8617148596758295  0.1382851403241705  0.2500000000000000
 
  0.00000000E+00  0.00000000E+00  0.00000000E+00
  0.00000000E+00  0.00000000E+00  0.00000000E+00
  0.00000000E+00  0.00000000E+00  0.00000000E+00
  0.00000000E+00  0.00000000E+00  0.00000000E+00
