In1Ni2Tb2   [ORCC,ORCC,oS10] (STD_PRIM d
   1.00000000000000     
     1.9632771541747815   -7.1693643519743526    0.0000000000000000
     1.9632771541747815    7.1693643519743526    0.0000000000000000
     0.0000000000000000    0.0000000000000000    3.6294790394269016
   1   2   2
Direct
  0.0000000000000000  0.0000000000000000  0.0000000000000000
  0.1976973511997688  0.8023026488002312  0.0000000000000000
  0.8023026488002312  0.1976973511997688  0.0000000000000000
  0.3609099640796292  0.6390900359203708  0.5000000000000000
  0.6390900359203708  0.3609099640796292  0.5000000000000000
 
  0.00000000E+00  0.00000000E+00  0.00000000E+00
  0.00000000E+00  0.00000000E+00  0.00000000E+00
  0.00000000E+00  0.00000000E+00  0.00000000E+00
  0.00000000E+00  0.00000000E+00  0.00000000E+00
  0.00000000E+00  0.00000000E+00  0.00000000E+00
