Dy3Os1   [ORC,ORC,oP16] (STD_PRIM doi:10
   1.00000000000000     
     6.3255870115747905   -0.0000000000000000    0.0000000000000000
    -0.0000000000000000    7.3803929914152802    0.0000000000000000
     0.0000000000000000    0.0000000000000000    9.0730752754021680
  12   4
Direct
  0.8326257300646565  0.1746872204154724  0.9361711880266682
  0.3326257300646566  0.3253127795845276  0.0638288119733319
  0.1673742699353435  0.8253127795845276  0.4361711880266682
  0.6673742699353435  0.6746872204154724  0.5638288119733318
  0.1673742699353435  0.8253127795845276  0.0638288119733319
  0.6673742699353435  0.6746872204154724  0.9361711880266682
  0.8326257300646565  0.1746872204154724  0.5638288119733318
  0.3326257300646566  0.3253127795845276  0.4361711880266682
  0.3672387214612802  0.0396455287294262  0.7500000000000000
  0.8672387214612802  0.4603544712705738  0.2500000000000000
  0.6327612785387198  0.9603544712705738  0.2500000000000000
  0.1327612785387198  0.5396455287294262  0.7500000000000000
  0.5395387508454731  0.3819315830722668  0.7500000000000000
  0.0395387508454731  0.1180684169277332  0.2500000000000000
  0.4604612491545269  0.6180684169277332  0.2500000000000000
  0.9604612491545269  0.8819315830722668  0.7500000000000000
 
  0.00000000E+00  0.00000000E+00  0.00000000E+00
  0.00000000E+00  0.00000000E+00  0.00000000E+00
  0.00000000E+00  0.00000000E+00  0.00000000E+00
  0.00000000E+00  0.00000000E+00  0.00000000E+00
  0.00000000E+00  0.00000000E+00  0.00000000E+00
  0.00000000E+00  0.00000000E+00  0.00000000E+00
  0.00000000E+00  0.00000000E+00  0.00000000E+00
  0.00000000E+00  0.00000000E+00  0.00000000E+00
  0.00000000E+00  0.00000000E+00  0.00000000E+00
  0.00000000E+00  0.00000000E+00  0.00000000E+00
  0.00000000E+00  0.00000000E+00  0.00000000E+00
  0.00000000E+00  0.00000000E+00  0.00000000E+00
  0.00000000E+00  0.00000000E+00  0.00000000E+00
  0.00000000E+00  0.00000000E+00  0.00000000E+00
  0.00000000E+00  0.00000000E+00  0.00000000E+00
  0.00000000E+00  0.00000000E+00  0.00000000E+00
