Ni1S1   [HEX,HEX,hP4] (STD_PRIM doi:10.1
   1.00000000000000     
     1.7651500670274229   -3.0575808001861735    0.0000000000000000
     1.7651500670274229    3.0575808001861735   -0.0000000000000000
     0.0000000000000000    0.0000000000000000    5.6465446558529360
   2   2
Direct
 -0.0000000000000000 -0.0000000000000000 -0.0000000000000000
  0.0000000000000000  0.0000000000000000  0.5000000000000000
  0.3333258211520256  0.6666741788479743  0.2500000000000000
  0.6666741788479743  0.3333258211520256  0.7500000000000000
 
  0.00000000E+00  0.00000000E+00  0.00000000E+00
  0.00000000E+00  0.00000000E+00  0.00000000E+00
  0.00000000E+00  0.00000000E+00  0.00000000E+00
  0.00000000E+00  0.00000000E+00  0.00000000E+00
