Hf1La3Sb5   [HEX,HEX,hP18] (STD_PRIM doi
   1.00000200000000     
     4.8514879246927292   -8.4030914447614684    0.0000000000000000
     4.8515855387616522    8.4031479927371038    0.0000000000000000
     0.0000000000000000    0.0000000000000000    6.4067416939351425
   2   6  10
Direct
  0.0000000000000000 -0.0000000000000000  0.0000000000000000
 -0.0000000000000000  0.0000000000000000  0.5000000000000000
  0.9999974012636433  0.3817267221953127  0.2500000000000000
  0.6182648656112220  0.6182722554806801  0.2500000000000000
  0.3817394874753833 -0.0000001866541010  0.2500000000000000
  0.0000025987363566  0.6182732778046873  0.7500000000000000
  0.3817351343887780  0.3817277445193128  0.7500000000000000
  0.6182605125246167  0.0000001866541010  0.7500000000000000
  0.0000012595400306  0.7427219188722163  0.2500000000000000
  0.2572827947109702  0.2572767356428123  0.2500000000000000
  0.7427156768543611  0.0000006246328073  0.2500000000000000
  0.9999987404599694  0.2572780811277837  0.7500000000000000
  0.7427172052890298  0.7427232643571876  0.7500000000000000
  0.2572843231456389  0.9999993753671926  0.7500000000000000
  0.6666747338366112  0.3333480133405656  0.0000016740106478
  0.3333252661633888  0.6666519866594202  0.5000016740106479
  0.3333252661633888  0.6666519866594202  0.9999983259893521
  0.6666747338366112  0.3333480133405656  0.4999983259893521
 
  0.00000000E+00  0.00000000E+00  0.00000000E+00
  0.00000000E+00  0.00000000E+00  0.00000000E+00
  0.00000000E+00  0.00000000E+00  0.00000000E+00
  0.00000000E+00  0.00000000E+00  0.00000000E+00
  0.00000000E+00  0.00000000E+00  0.00000000E+00
  0.00000000E+00  0.00000000E+00  0.00000000E+00
  0.00000000E+00  0.00000000E+00  0.00000000E+00
  0.00000000E+00  0.00000000E+00  0.00000000E+00
  0.00000000E+00  0.00000000E+00  0.00000000E+00
  0.00000000E+00  0.00000000E+00  0.00000000E+00
  0.00000000E+00  0.00000000E+00  0.00000000E+00
  0.00000000E+00  0.00000000E+00  0.00000000E+00
  0.00000000E+00  0.00000000E+00  0.00000000E+00
  0.00000000E+00  0.00000000E+00  0.00000000E+00
  0.00000000E+00  0.00000000E+00  0.00000000E+00
  0.00000000E+00  0.00000000E+00  0.00000000E+00
  0.00000000E+00  0.00000000E+00  0.00000000E+00
  0.00000000E+00  0.00000000E+00  0.00000000E+00
