Cl1O1Y1   [TET,TET,tP6] (STD_PRIM doi:10
   1.00000000000000     
     3.9352370963826577    0.0000000000000000   -0.0000000000000000
     0.0000000000000000    3.9352370963826577    0.0000000000000000
     0.0000000000000000    0.0000000000000000    6.7003631488810376
   2   2   2
Direct
  0.2500000000000000  0.2500000000000000  0.6264265010546062
  0.7500000000000000  0.7500000000000000  0.3735734989453938
  0.7500000000000000  0.2500000000000000 -0.0000000000000000
  0.2500000000000000  0.7500000000000000  0.0000000000000000
  0.2500000000000000  0.2500000000000000  0.1674612492448507
  0.7500000000000000  0.7500000000000000  0.8325387507551493
 
  0.00000000E+00  0.00000000E+00  0.00000000E+00
  0.00000000E+00  0.00000000E+00  0.00000000E+00
  0.00000000E+00  0.00000000E+00  0.00000000E+00
  0.00000000E+00  0.00000000E+00  0.00000000E+00
  0.00000000E+00  0.00000000E+00  0.00000000E+00
  0.00000000E+00  0.00000000E+00  0.00000000E+00
