Pd1Sn1   [ORC,ORC,oP8] (STD_PRIM doi:10.
   1.00000000000000     
     3.3438606128931041    0.0000000000000000    0.0000000000000000
     0.0000000000000001    7.3832008508314573    0.0000000000000000
     0.0000000000000000    0.0000000000000000    6.6526075570773529
   4   4
Direct
  0.7500000000000000  0.0464008018123851  0.1781165464490514
  0.2500000000000000  0.5464008018123852  0.3218834535509486
  0.2500000000000000  0.9535991981876148  0.8218834535509485
  0.7500000000000000  0.4535991981876148  0.6781165464490515
  0.7500000000000000  0.8052048680272448  0.5204170858678520
  0.2500000000000000  0.3052048680272448  0.9795829141321480
  0.2500000000000000  0.1947951319727552  0.4795829141321480
  0.7500000000000000  0.6947951319727552  0.0204170858678520
 
  0.00000000E+00  0.00000000E+00  0.00000000E+00
  0.00000000E+00  0.00000000E+00  0.00000000E+00
  0.00000000E+00  0.00000000E+00  0.00000000E+00
  0.00000000E+00  0.00000000E+00  0.00000000E+00
  0.00000000E+00  0.00000000E+00  0.00000000E+00
  0.00000000E+00  0.00000000E+00  0.00000000E+00
  0.00000000E+00  0.00000000E+00  0.00000000E+00
  0.00000000E+00  0.00000000E+00  0.00000000E+00
