B2Ho1Os1   [ORC,ORC,oP16] (STD_PRIM doi:
   1.00000000000000     
     5.3039694786643459   -0.0000000000000000    0.0000000000000000
     0.0000000000000000    5.8846155004852339    0.0000000000000000
     0.0000000000000000    0.0000000000000000    6.3547903112697774
   8   4   4
Direct
  0.0824745915184480  0.3630486072018007  0.5389496652181831
  0.9175254084815520  0.1369513927981993  0.0389496652181831
  0.5824745915184480  0.6369513927981992  0.4610503347818170
  0.4175254084815520  0.8630486072018008  0.9610503347818169
  0.9175254084815520  0.6369513927981992  0.4610503347818170
  0.0824745915184480  0.8630486072018008  0.9610503347818169
  0.4175254084815520  0.3630486072018007  0.5389496652181831
  0.5824745915184480  0.1369513927981993  0.0389496652181831
  0.2500000000000000  0.0101701003102994  0.3349791985235478
  0.7500000000000000  0.4898298996897006  0.8349791985235478
  0.7500000000000000  0.9898298996897006  0.6650208014764522
  0.2500000000000000  0.5101701003102994  0.1650208014764522
  0.2500000000000000  0.1772305560295163  0.8183915233048628
  0.7500000000000000  0.3227694439704837  0.3183915233048628
  0.7500000000000000  0.8227694439704837  0.1816084766951372
  0.2500000000000000  0.6772305560295163  0.6816084766951372
 
  0.00000000E+00  0.00000000E+00  0.00000000E+00
  0.00000000E+00  0.00000000E+00  0.00000000E+00
  0.00000000E+00  0.00000000E+00  0.00000000E+00
  0.00000000E+00  0.00000000E+00  0.00000000E+00
  0.00000000E+00  0.00000000E+00  0.00000000E+00
  0.00000000E+00  0.00000000E+00  0.00000000E+00
  0.00000000E+00  0.00000000E+00  0.00000000E+00
  0.00000000E+00  0.00000000E+00  0.00000000E+00
  0.00000000E+00  0.00000000E+00  0.00000000E+00
  0.00000000E+00  0.00000000E+00  0.00000000E+00
  0.00000000E+00  0.00000000E+00  0.00000000E+00
  0.00000000E+00  0.00000000E+00  0.00000000E+00
  0.00000000E+00  0.00000000E+00  0.00000000E+00
  0.00000000E+00  0.00000000E+00  0.00000000E+00
  0.00000000E+00  0.00000000E+00  0.00000000E+00
  0.00000000E+00  0.00000000E+00  0.00000000E+00
