Ca1Ga2   [HEX,HEX,hP6] (STD_PRIM doi:10.
   1.00000000000000     
     2.2417679793424603   -3.8830067854145329    0.0000000000000000
     2.2417679793424603    3.8830067854145329    0.0000000000000000
     0.0000000000000000    0.0000000000000000    7.3415507875693864
   2   4
Direct
  0.9999937053969864  0.0000062946030136  0.2500000000000000
  0.0000062946030136  0.9999937053969864  0.7500000000000000
  0.3333218026792819  0.6666781973207182  0.0425691936671157
  0.6666781973207182  0.3333218026792819  0.5425691936671158
  0.6666781973207182  0.3333218026792819  0.9574308063328842
  0.3333218026792819  0.6666781973207182  0.4574308063328843
 
  0.00000000E+00  0.00000000E+00  0.00000000E+00
  0.00000000E+00  0.00000000E+00  0.00000000E+00
  0.00000000E+00  0.00000000E+00  0.00000000E+00
  0.00000000E+00  0.00000000E+00  0.00000000E+00
  0.00000000E+00  0.00000000E+00  0.00000000E+00
  0.00000000E+00  0.00000000E+00  0.00000000E+00
