O2Si1   [BCT,BCT2,tI24] (STD_PRIM doi:10
   1.00000000000000     
    -2.8363674464758493    2.8363674464758493    5.6608440614367961
     2.8363674464758493   -2.8363674464758493    5.6608440614367961
     2.8363674464758493    2.8363674464758493   -5.6608440614367961
   8   4
Direct
  0.8835993322037580  0.8835993322037580 -0.0000000000000000
  0.6335993322037580  0.1335993322037580  0.5000000000000000
  0.8664006677962420  0.3664006677962420  0.5000000000000000
  0.1164006677962420  0.1164006677962420 -0.0000000000000000
  0.2817128385596566  0.7182871614403433  0.0000000000000000
  0.7182871614403433  0.2817128385596566  0.0000000000000000
  0.4682871614403434  0.9682871614403433  0.9365743228806939
  0.0317128385596566  0.5317128385596567  0.0634256771193061
  0.0137049856464704  0.6250000000000000  0.8887049856464704
  0.7362950143535296  0.1250000000000000  0.1112950143535296
  0.3750000000000000  0.9862950143535296  0.1112950143535296
  0.8750000000000000  0.2637049856464704  0.8887049856464704
 
  0.00000000E+00  0.00000000E+00  0.00000000E+00
  0.00000000E+00  0.00000000E+00  0.00000000E+00
  0.00000000E+00  0.00000000E+00  0.00000000E+00
  0.00000000E+00  0.00000000E+00  0.00000000E+00
  0.00000000E+00  0.00000000E+00  0.00000000E+00
  0.00000000E+00  0.00000000E+00  0.00000000E+00
  0.00000000E+00  0.00000000E+00  0.00000000E+00
  0.00000000E+00  0.00000000E+00  0.00000000E+00
  0.00000000E+00  0.00000000E+00  0.00000000E+00
  0.00000000E+00  0.00000000E+00  0.00000000E+00
  0.00000000E+00  0.00000000E+00  0.00000000E+00
  0.00000000E+00  0.00000000E+00  0.00000000E+00
