Au3Sb4Tb3   [BCC,BCC,cI40] (STD_PRIM doi
   1.00000000000000     
    -4.9675124455221233    4.9675124455221233    4.9675124455221233
     4.9675124455221233   -4.9675124455221233    4.9675124455221233
     4.9675124455221233    4.9675124455221233   -4.9675124455221233
   6   8   6
Direct
  0.8750000000000000  0.6250000000000000  0.7500000000000000
  0.6250000000000000  0.8750000000000000  0.2500000000000000
  0.1250000000000000  0.2500000000000000  0.8750000000000000
  0.3750000000000000  0.7500000000000000  0.6250000000000000
  0.2500000000000000  0.1250000000000000  0.3750000000000000
  0.7500000000000000  0.3750000000000000  0.1250000000000000
  0.1781790637639631  0.0000000000000000  0.0000000000000000
  0.3218209362360369  0.8218209362360369  0.3218209362360369
  0.5000000000000000  0.5000000000000000  0.1781790637639631
  0.0000000000000000  0.6781790637639631  0.5000000000000000
  0.6781790637639631  0.0000000000000000  0.0000000000000000
  0.8218209362360369  0.3218209362360369  0.8218209362360369
  0.0000000000000000  0.1781790637639631  0.5000000000000000
  0.5000000000000000  0.5000000000000000  0.6781790637639631
  0.3750000000000000  0.1250000000000000  0.7500000000000000
  0.1250000000000000  0.3750000000000000  0.2500000000000000
  0.6250000000000000  0.2500000000000000  0.3750000000000000
  0.8750000000000000  0.7500000000000000  0.1250000000000000
  0.2500000000000000  0.6250000000000000  0.8750000000000000
  0.7500000000000000  0.8750000000000000  0.6250000000000000
 
  0.00000000E+00  0.00000000E+00  0.00000000E+00
  0.00000000E+00  0.00000000E+00  0.00000000E+00
  0.00000000E+00  0.00000000E+00  0.00000000E+00
  0.00000000E+00  0.00000000E+00  0.00000000E+00
  0.00000000E+00  0.00000000E+00  0.00000000E+00
  0.00000000E+00  0.00000000E+00  0.00000000E+00
  0.00000000E+00  0.00000000E+00  0.00000000E+00
  0.00000000E+00  0.00000000E+00  0.00000000E+00
  0.00000000E+00  0.00000000E+00  0.00000000E+00
  0.00000000E+00  0.00000000E+00  0.00000000E+00
  0.00000000E+00  0.00000000E+00  0.00000000E+00
  0.00000000E+00  0.00000000E+00  0.00000000E+00
  0.00000000E+00  0.00000000E+00  0.00000000E+00
  0.00000000E+00  0.00000000E+00  0.00000000E+00
  0.00000000E+00  0.00000000E+00  0.00000000E+00
  0.00000000E+00  0.00000000E+00  0.00000000E+00
  0.00000000E+00  0.00000000E+00  0.00000000E+00
  0.00000000E+00  0.00000000E+00  0.00000000E+00
  0.00000000E+00  0.00000000E+00  0.00000000E+00
  0.00000000E+00  0.00000000E+00  0.00000000E+00
