Ag2Mo1O4   [FCC,FCC,cF56] (STD_PRIM doi:
   1.22474500000000     
     0.0000000000000000    3.8634925415438195    3.8634925415438195
     3.8634925415438195    0.0000000000000000    3.8634925415438195
     3.8634925415438195    3.8634925415438195    0.0000000000000000
   4   2   8
Direct
  0.8750000000000000  0.3750000000000000  0.3750000000000000
  0.3750000000000000  0.8750000000000000  0.3750000000000000
  0.3750000000000000  0.3750000000000000  0.3750000000000000
  0.3750000000000000  0.3750000000000000  0.8750000000000000
  0.0000000000000000  0.0000000000000000  0.0000000000000000
  0.7500000000000000  0.7500000000000000  0.7500000000000000
  0.0799108680028624  0.6400297106657149  0.6400297106657149
  0.6400297106657149  0.0799108680028624  0.6400297106657149
  0.6400297106657149  0.6400297106657149  0.6400297106657149
  0.6400297106657149  0.6400297106657149  0.0799108680028624
  0.1099702893342851  0.6700891319971376  0.1099702893342851
  0.6700891319971376  0.1099702893342851  0.1099702893342851
  0.1099702893342851  0.1099702893342851  0.1099702893342851
  0.1099702893342851  0.1099702893342851  0.6700891319971376
 
  0.00000000E+00  0.00000000E+00  0.00000000E+00
  0.00000000E+00  0.00000000E+00  0.00000000E+00
  0.00000000E+00  0.00000000E+00  0.00000000E+00
  0.00000000E+00  0.00000000E+00  0.00000000E+00
  0.00000000E+00  0.00000000E+00  0.00000000E+00
  0.00000000E+00  0.00000000E+00  0.00000000E+00
  0.00000000E+00  0.00000000E+00  0.00000000E+00
  0.00000000E+00  0.00000000E+00  0.00000000E+00
  0.00000000E+00  0.00000000E+00  0.00000000E+00
  0.00000000E+00  0.00000000E+00  0.00000000E+00
  0.00000000E+00  0.00000000E+00  0.00000000E+00
  0.00000000E+00  0.00000000E+00  0.00000000E+00
  0.00000000E+00  0.00000000E+00  0.00000000E+00
  0.00000000E+00  0.00000000E+00  0.00000000E+00
