Ir3Sn7   [BCC,BCC,cI40] (STD_PRIM doi:10
   1.00000000000000     
    -4.7903375920402018    4.7903375920402018    4.7903375920402018
     4.7903375920402018   -4.7903375920402018    4.7903375920402018
     4.7903375920402018    4.7903375920402018   -4.7903375920402018
   6  14
Direct
  0.0000000000000000  0.3431103622388724  0.3431103622388724
  0.0000000000000000  0.6568896377611275  0.6568896377611275
  0.3431103622388724  0.3431103622388724  0.0000000000000000
  0.6568896377611275  0.6568896377611275  0.0000000000000000
  0.6568896377611275  0.0000000000000000  0.6568896377611275
  0.3431103622388724  0.0000000000000000  0.3431103622388724
  0.7500000000000000  0.5000000000000000  0.2500000000000000
  0.2500000000000000  0.5000000000000000  0.7500000000000000
  0.5000000000000000  0.7500000000000000  0.2500000000000000
  0.5000000000000000  0.2500000000000000  0.7500000000000000
  0.7500000000000000  0.2500000000000000  0.5000000000000000
  0.2500000000000000  0.7500000000000000  0.5000000000000000
  0.0000000000000000  0.3290399472817583 -0.0000000000000000
  0.6709600527182417  0.6709600527182417  0.6709600527182417
  0.3290399472817583  0.0000000000000000 -0.0000000000000000
  0.0000000000000000  0.0000000000000000  0.3290399472817583
  0.3290399472817583  0.3290399472817583  0.3290399472817583
  0.0000000000000000  0.6709600527182417  0.0000000000000000
  0.6709600527182417  0.0000000000000000  0.0000000000000000
 -0.0000000000000000  0.0000000000000000  0.6709600527182417
 
  0.00000000E+00  0.00000000E+00  0.00000000E+00
  0.00000000E+00  0.00000000E+00  0.00000000E+00
  0.00000000E+00  0.00000000E+00  0.00000000E+00
  0.00000000E+00  0.00000000E+00  0.00000000E+00
  0.00000000E+00  0.00000000E+00  0.00000000E+00
  0.00000000E+00  0.00000000E+00  0.00000000E+00
  0.00000000E+00  0.00000000E+00  0.00000000E+00
  0.00000000E+00  0.00000000E+00  0.00000000E+00
  0.00000000E+00  0.00000000E+00  0.00000000E+00
  0.00000000E+00  0.00000000E+00  0.00000000E+00
  0.00000000E+00  0.00000000E+00  0.00000000E+00
  0.00000000E+00  0.00000000E+00  0.00000000E+00
  0.00000000E+00  0.00000000E+00  0.00000000E+00
  0.00000000E+00  0.00000000E+00  0.00000000E+00
  0.00000000E+00  0.00000000E+00  0.00000000E+00
  0.00000000E+00  0.00000000E+00  0.00000000E+00
  0.00000000E+00  0.00000000E+00  0.00000000E+00
  0.00000000E+00  0.00000000E+00  0.00000000E+00
  0.00000000E+00  0.00000000E+00  0.00000000E+00
  0.00000000E+00  0.00000000E+00  0.00000000E+00
