Ca1Pd2   [FCC,FCC,cF24] (STD_PRIM doi:10
   1.22474500000000     
    -0.0000000000000000    3.1479895414077377    3.1479895414077377
     3.1479895414077377    0.0000000000000000    3.1479895414077377
     3.1479895414077377    3.1479895414077377   -0.0000000000000000
   2   4
Direct
 -0.0000000000000000  0.0000000000000000  0.0000000000000000
  0.7500000000000000  0.7500000000000000  0.7500000000000000
  0.3750000000000000  0.3750000000000000  0.8750000000000000
  0.3750000000000000  0.3750000000000000  0.3750000000000000
  0.3750000000000000  0.8750000000000000  0.3750000000000000
  0.8750000000000000  0.3750000000000000  0.3750000000000000
 
  0.00000000E+00  0.00000000E+00  0.00000000E+00
  0.00000000E+00  0.00000000E+00  0.00000000E+00
  0.00000000E+00  0.00000000E+00  0.00000000E+00
  0.00000000E+00  0.00000000E+00  0.00000000E+00
  0.00000000E+00  0.00000000E+00  0.00000000E+00
  0.00000000E+00  0.00000000E+00  0.00000000E+00
