Co1P1Zr4   [TET,TET,tP12] (STD_PRIM doi:
   1.00000000000000     
     6.3680320988965198    0.0000000000000000    0.0000000000000000
     0.0000000000000000    6.3680320988965198    0.0000000000000000
     0.0000000000000000   -0.0000000000000000    5.4942420196544717
   2   2   8
Direct
 -0.0000000000000000  0.0000000000000000  0.2500000000000000
 -0.0000000000000000  0.0000000000000000  0.7500000000000000
  0.5000000000000000  0.5000000000000000  0.2500000000000000
  0.5000000000000000  0.5000000000000000  0.7500000000000000
  0.1601250020608845  0.6693346030072187  0.0000000000000000
  0.8398749979391155  0.3306653969927813 -0.0000000000000000
  0.3306653969927813  0.1601250020608845 -0.0000000000000000
  0.6693346030072187  0.8398749979391155  0.0000000000000000
  0.8398749979391155  0.6693346030072187  0.5000000000000000
  0.1601250020608845  0.3306653969927813  0.5000000000000000
  0.6693346030072187  0.1601250020608845  0.5000000000000000
  0.3306653969927813  0.8398749979391155  0.5000000000000000
 
  0.00000000E+00  0.00000000E+00  0.00000000E+00
  0.00000000E+00  0.00000000E+00  0.00000000E+00
  0.00000000E+00  0.00000000E+00  0.00000000E+00
  0.00000000E+00  0.00000000E+00  0.00000000E+00
  0.00000000E+00  0.00000000E+00  0.00000000E+00
  0.00000000E+00  0.00000000E+00  0.00000000E+00
  0.00000000E+00  0.00000000E+00  0.00000000E+00
  0.00000000E+00  0.00000000E+00  0.00000000E+00
  0.00000000E+00  0.00000000E+00  0.00000000E+00
  0.00000000E+00  0.00000000E+00  0.00000000E+00
  0.00000000E+00  0.00000000E+00  0.00000000E+00
  0.00000000E+00  0.00000000E+00  0.00000000E+00
