Co1Ti2   [FCC,FCC,cF96] (STD_PRIM doi:10
   1.22474500000000     
    -0.0000000000000000    4.6313925775739264    4.6313925775739264
     4.6313925775739264    0.0000000000000000    4.6313925775739264
     4.6313925775739264    4.6313925775739264   -0.0000000000000000
   8  16
Direct
  0.2214027763028358  0.2214027763028358  0.2214027763028358
  0.2214027763028358  0.8357916710914927  0.2214027763028358
  0.8357916710914927  0.2214027763028358  0.2214027763028358
  0.2214027763028358  0.2214027763028358  0.8357916710914927
  0.7785972236971642  0.1642083289085073  0.7785972236971642
  0.7785972236971642  0.7785972236971642  0.7785972236971642
  0.1642083289085073  0.7785972236971642  0.7785972236971642
  0.7785972236971642  0.7785972236971642  0.1642083289085073
  0.0000000000000000 -0.0000000000000000  0.0000000000000000
 -0.0000000000000000  0.5000000000000000  0.0000000000000000
  0.5000000000000000  0.0000000000000000  0.0000000000000000
  0.0000000000000000  0.0000000000000000  0.5000000000000000
  0.4390151327958795  0.4390151327958795  0.8109848672041204
  0.8109848672041204  0.8109848672041204  0.4390151327958795
  0.8109848672041204  0.4390151327958795  0.4390151327958795
  0.4390151327958795  0.8109848672041204  0.8109848672041204
  0.4390151327958795  0.8109848672041204  0.4390151327958795
  0.8109848672041204  0.4390151327958795  0.8109848672041204
  0.5609848672041204  0.1890151327958795  0.1890151327958795
  0.1890151327958795  0.5609848672041204  0.5609848672041204
  0.1890151327958795  0.1890151327958795  0.5609848672041204
  0.5609848672041204  0.5609848672041204  0.1890151327958795
  0.5609848672041204  0.1890151327958795  0.5609848672041204
  0.1890151327958795  0.5609848672041204  0.1890151327958795
 
  0.00000000E+00  0.00000000E+00  0.00000000E+00
  0.00000000E+00  0.00000000E+00  0.00000000E+00
  0.00000000E+00  0.00000000E+00  0.00000000E+00
  0.00000000E+00  0.00000000E+00  0.00000000E+00
  0.00000000E+00  0.00000000E+00  0.00000000E+00
  0.00000000E+00  0.00000000E+00  0.00000000E+00
  0.00000000E+00  0.00000000E+00  0.00000000E+00
  0.00000000E+00  0.00000000E+00  0.00000000E+00
  0.00000000E+00  0.00000000E+00  0.00000000E+00
  0.00000000E+00  0.00000000E+00  0.00000000E+00
  0.00000000E+00  0.00000000E+00  0.00000000E+00
  0.00000000E+00  0.00000000E+00  0.00000000E+00
  0.00000000E+00  0.00000000E+00  0.00000000E+00
  0.00000000E+00  0.00000000E+00  0.00000000E+00
  0.00000000E+00  0.00000000E+00  0.00000000E+00
  0.00000000E+00  0.00000000E+00  0.00000000E+00
  0.00000000E+00  0.00000000E+00  0.00000000E+00
  0.00000000E+00  0.00000000E+00  0.00000000E+00
  0.00000000E+00  0.00000000E+00  0.00000000E+00
  0.00000000E+00  0.00000000E+00  0.00000000E+00
  0.00000000E+00  0.00000000E+00  0.00000000E+00
  0.00000000E+00  0.00000000E+00  0.00000000E+00
  0.00000000E+00  0.00000000E+00  0.00000000E+00
  0.00000000E+00  0.00000000E+00  0.00000000E+00
