Al2Au2Sr1 #129.2 - (Al2Au2Sr1_ICSD_65812
    1.000000000000000     
     4.5111158260234072    0.0000000000000000    0.0000000000000000
     0.0000000000000000    4.5111158260234072    0.0000000000000000
     0.0000000000000000    0.0000000000000000   10.6107578133675435
   4   4   2
Direct
  0.7500000000000000  0.2500000000000000  0.5000000000000000
  0.2500000000000000  0.7500000000000000  0.5000000000000000
  0.2500000000000000  0.2500000000000000  0.1244811765677754
  0.7500000000000000  0.7500000000000000  0.8755188234322246
  0.7500000000000000  0.2500000000000000  0.0000000000000000
  0.2500000000000000  0.7500000000000000  0.0000000000000000
  0.2500000000000000  0.2500000000000000  0.3695311321968296
  0.7500000000000000  0.7500000000000000  0.6304688678031705
  0.2500000000000000  0.2500000000000000  0.7511754935415389
  0.7500000000000000  0.7500000000000000  0.2488245064584610
 
  0.00000000E+00  0.00000000E+00  0.00000000E+00
  0.00000000E+00  0.00000000E+00  0.00000000E+00
  0.00000000E+00  0.00000000E+00  0.00000000E+00
  0.00000000E+00  0.00000000E+00  0.00000000E+00
  0.00000000E+00  0.00000000E+00  0.00000000E+00
  0.00000000E+00  0.00000000E+00  0.00000000E+00
  0.00000000E+00  0.00000000E+00  0.00000000E+00
  0.00000000E+00  0.00000000E+00  0.00000000E+00
  0.00000000E+00  0.00000000E+00  0.00000000E+00
  0.00000000E+00  0.00000000E+00  0.00000000E+00
