Ru2Tb5   [MCLC,MCLC1,mS28] (STD_PRIM doi
   1.00000000000000     
     3.1839864214441080    7.9300545772412665    0.0137978172053346
    -3.1839864214441080    7.9300545772412665    0.0137978172053346
     0.0000000000000000    0.9328312933869350    7.1954594248823653
   4  10
Direct
  0.1723408933355261  0.6024394416220397  0.0766130156659801
  0.3975605583779602  0.8276591066644736  0.4233869843340198
  0.8276591066644736  0.3975605583779602  0.9233869843340199
  0.6024394416220397  0.1723408933355262  0.5766130156659801
  0.0168843098437579  0.7958838717084968  0.4143467055238471
  0.2041161282915031  0.9831156901562421  0.0856532944761530
  0.9831156901562421  0.2041161282915031  0.5856532944761530
  0.7958838717084968  0.0168843098437579  0.9143467055238470
  0.3612003079738465  0.2056535917287938  0.3125945214123775
  0.7943464082712063  0.6387996920261537  0.1874054785876225
  0.6387996920261537  0.7943464082712063  0.6874054785876226
  0.2056535917287938  0.3612003079738465  0.8125945214123774
  0.5779215510279184  0.4220784489720816  0.2500000000000000
  0.4220784489720816  0.5779215510279184  0.7500000000000000
 
  0.00000000E+00  0.00000000E+00  0.00000000E+00
  0.00000000E+00  0.00000000E+00  0.00000000E+00
  0.00000000E+00  0.00000000E+00  0.00000000E+00
  0.00000000E+00  0.00000000E+00  0.00000000E+00
  0.00000000E+00  0.00000000E+00  0.00000000E+00
  0.00000000E+00  0.00000000E+00  0.00000000E+00
  0.00000000E+00  0.00000000E+00  0.00000000E+00
  0.00000000E+00  0.00000000E+00  0.00000000E+00
  0.00000000E+00  0.00000000E+00  0.00000000E+00
  0.00000000E+00  0.00000000E+00  0.00000000E+00
  0.00000000E+00  0.00000000E+00  0.00000000E+00
  0.00000000E+00  0.00000000E+00  0.00000000E+00
  0.00000000E+00  0.00000000E+00  0.00000000E+00
  0.00000000E+00  0.00000000E+00  0.00000000E+00
