Pd1Y1   [ORCC,ORCC,oS8] (STD_PRIM doi:10
   1.00000000000000     
     1.8655268702232264   -5.2788462246106764   -0.0000000000000000
     1.8655268702232264    5.2788462246106764    0.0000000000000000
     0.0000000000000000    0.0000000000000000    4.5727434923659889
   2   2
Direct
  0.4129005131952919  0.5870994868047080  0.7500000000000000
  0.5870994868047080  0.4129005131952919  0.2500000000000000
  0.1372113535587716  0.8627886464412284  0.7500000000000000
  0.8627886464412284  0.1372113535587716  0.2500000000000000
 
  0.00000000E+00  0.00000000E+00  0.00000000E+00
  0.00000000E+00  0.00000000E+00  0.00000000E+00
  0.00000000E+00  0.00000000E+00  0.00000000E+00
  0.00000000E+00  0.00000000E+00  0.00000000E+00
