Al3Hf1   [BCT,BCT2,tI16] (STD_PRIM doi:1
   1.00000000000000     
    -1.9999157243423373    1.9999157243423373    8.5976109425360328
     1.9999157243423373   -1.9999157243423373    8.5976109425360328
     1.9999157243423373    1.9999157243423373   -8.5976109425360328
   6   2
Direct
  0.0000000000000000  0.5000000000000000  0.5000000000000000
  0.5000000000000000  0.0000000000000000  0.5000000000000000
  0.7500000000000000  0.2500000000000000  0.5000000000000000
  0.2500000000000000  0.7500000000000000  0.5000000000000000
  0.6246044091604700  0.6246044091604700  0.0000000000000000
  0.3753955908395299  0.3753955908395299  0.0000000000000000
  0.8805439290933627  0.8805439290933627 -0.0000000000000000
  0.1194560709066373  0.1194560709066373  0.0000000000000000
 
  0.00000000E+00  0.00000000E+00  0.00000000E+00
  0.00000000E+00  0.00000000E+00  0.00000000E+00
  0.00000000E+00  0.00000000E+00  0.00000000E+00
  0.00000000E+00  0.00000000E+00  0.00000000E+00
  0.00000000E+00  0.00000000E+00  0.00000000E+00
  0.00000000E+00  0.00000000E+00  0.00000000E+00
  0.00000000E+00  0.00000000E+00  0.00000000E+00
  0.00000000E+00  0.00000000E+00  0.00000000E+00
