Ni1Sn1Tb1   [ORC,ORC,oP12] (STD_PRIM doi
   1.00000000000000     
     4.5187561599561228   -0.0000000000000000    0.0000000000000000
     0.0000000000000000    7.2138948068612985    0.0000000000000000
     0.0000000000000000    0.0000000000000000    7.6915319746247492
   4   4   4
Direct
  0.2500000000000000  0.1983413360363981  0.9156531325845784
  0.7500000000000000  0.3016586639636019  0.4156531325845784
  0.7500000000000000  0.8016586639636020  0.0843468674154216
  0.2500000000000000  0.6983413360363980  0.5843468674154216
  0.2500000000000000  0.3091045907190475  0.5872030248625526
  0.7500000000000000  0.1908954092809525  0.0872030248625526
  0.7500000000000000  0.6908954092809525  0.4127969751374473
  0.2500000000000000  0.8091045907190475  0.9127969751374474
  0.2500000000000000  0.9852966851045161  0.2976446373046069
  0.7500000000000000  0.5147033148954839  0.7976446373046069
  0.7500000000000000  0.0147033148954840  0.7023553626953931
  0.2500000000000000  0.4852966851045160  0.2023553626953931
 
  0.00000000E+00  0.00000000E+00  0.00000000E+00
  0.00000000E+00  0.00000000E+00  0.00000000E+00
  0.00000000E+00  0.00000000E+00  0.00000000E+00
  0.00000000E+00  0.00000000E+00  0.00000000E+00
  0.00000000E+00  0.00000000E+00  0.00000000E+00
  0.00000000E+00  0.00000000E+00  0.00000000E+00
  0.00000000E+00  0.00000000E+00  0.00000000E+00
  0.00000000E+00  0.00000000E+00  0.00000000E+00
  0.00000000E+00  0.00000000E+00  0.00000000E+00
  0.00000000E+00  0.00000000E+00  0.00000000E+00
  0.00000000E+00  0.00000000E+00  0.00000000E+00
  0.00000000E+00  0.00000000E+00  0.00000000E+00
