As1Zr1   [HEX,HEX,hP8] (STD_PRIM doi:10.
   1.00000000000000     
     1.9192914912945878   -3.3243016866752533    0.0000000000000000
     1.9192914912945878    3.3243016866752533    0.0000000000000000
     0.0000000000000000    0.0000000000000000   12.9736183884161242
   4   4
Direct
  0.0000000000000000  0.0000000000000000  0.0000000000000000
  0.0000000000000000  0.0000000000000000  0.5000000000000000
  0.3333320228406568  0.6666679771593432  0.7500000000000000
  0.6666679771593432  0.3333320228406568  0.2500000000000000
  0.3333290870841146  0.6666709129158854  0.1164821280081919
  0.6666709129158854  0.3333290870841146  0.6164821280081919
  0.6666709129158854  0.3333290870841146  0.8835178719918081
  0.3333290870841146  0.6666709129158854  0.3835178719918081
 
  0.00000000E+00  0.00000000E+00  0.00000000E+00
  0.00000000E+00  0.00000000E+00  0.00000000E+00
  0.00000000E+00  0.00000000E+00  0.00000000E+00
  0.00000000E+00  0.00000000E+00  0.00000000E+00
  0.00000000E+00  0.00000000E+00  0.00000000E+00
  0.00000000E+00  0.00000000E+00  0.00000000E+00
  0.00000000E+00  0.00000000E+00  0.00000000E+00
  0.00000000E+00  0.00000000E+00  0.00000000E+00
