F6S1   [BCC,BCC,cI14] (STD_PRIM doi:10.1
   1.00000000000000     
    -3.0285078643595220    3.0285078643595220    3.0285078643595220
     3.0285078643595220   -3.0285078643595220    3.0285078643595220
     3.0285078643595220    3.0285078643595220   -3.0285078643595220
   6   1
Direct
  0.0000000000000000  0.7362321493820474  0.7362321493820474
  0.0000000000000000  0.2637678506179526  0.2637678506179526
  0.7362321493820474  0.0000000000000000  0.7362321493820474
  0.2637678506179526  0.0000000000000000  0.2637678506179526
  0.2637678506179526  0.2637678506179526  0.0000000000000000
  0.7362321493820474  0.7362321493820474  0.0000000000000000
  0.0000000000000000  0.0000000000000000  0.0000000000000000
 
  0.00000000E+00  0.00000000E+00  0.00000000E+00
  0.00000000E+00  0.00000000E+00  0.00000000E+00
  0.00000000E+00  0.00000000E+00  0.00000000E+00
  0.00000000E+00  0.00000000E+00  0.00000000E+00
  0.00000000E+00  0.00000000E+00  0.00000000E+00
  0.00000000E+00  0.00000000E+00  0.00000000E+00
  0.00000000E+00  0.00000000E+00  0.00000000E+00
