La3O7Ta1   [ORCC,ORCC,oS22] (STD_PRIM do
   1.00000000000000     
     3.9234155879320114   -5.6458360721121643    0.0000000000000000
     3.9234155879320114    5.6458360721121643    0.0000000000000000
     0.0000000000000000    0.0000000000000000    3.9919068188988107
   3   7   1
Direct
  0.0000000000000000 -0.0000000000000000  0.0000000000000000
  0.0000000000000000  0.5000000000000000  0.5000000000000000
  0.5000000000000000 -0.0000000000000000  0.5000000000000000
  0.5000000000000000  0.5000000000000000  0.5000000000000000
  0.1880111405541982  0.4339960433292160  0.0000000000000000
  0.8119888594458019  0.5660039566707841 -0.0000000000000000
  0.4339960433292160  0.1880111405541982  0.0000000000000000
  0.5660039566707841  0.8119888594458019 -0.0000000000000000
  0.8694346543693811  0.1305653456306189  0.5000000000000000
  0.1305653456306189  0.8694346543693811  0.5000000000000000
  0.5000000000000000  0.5000000000000000  0.0000000000000000
 
  0.00000000E+00  0.00000000E+00  0.00000000E+00
  0.00000000E+00  0.00000000E+00  0.00000000E+00
  0.00000000E+00  0.00000000E+00  0.00000000E+00
  0.00000000E+00  0.00000000E+00  0.00000000E+00
  0.00000000E+00  0.00000000E+00  0.00000000E+00
  0.00000000E+00  0.00000000E+00  0.00000000E+00
  0.00000000E+00  0.00000000E+00  0.00000000E+00
  0.00000000E+00  0.00000000E+00  0.00000000E+00
  0.00000000E+00  0.00000000E+00  0.00000000E+00
  0.00000000E+00  0.00000000E+00  0.00000000E+00
  0.00000000E+00  0.00000000E+00  0.00000000E+00
