Co1Er1Si2   [ORCC,ORCC,oS16] (STD_PRIM d
   1.00000000000000     
     1.9940242661678200   -7.9726152145170568   -0.0000000000000000
     1.9940242661678200    7.9726152145170568    0.0000000000000000
     0.0000000000000000    0.0000000000000000    3.9480443734638415
   2   2   4
Direct
  0.6810548589967661  0.3189451410032339  0.7500000000000000
  0.3189451410032339  0.6810548589967661  0.2500000000000000
  0.8927933558277237  0.1072066441722763  0.7500000000000000
  0.1072066441722763  0.8927933558277237  0.2500000000000000
  0.5437051512746744  0.4562948487253256  0.7500000000000000
  0.4562948487253256  0.5437051512746744  0.2500000000000000
  0.2499708576270990  0.7500291423729011  0.7500000000000000
  0.7500291423729011  0.2499708576270990  0.2500000000000000
 
  0.00000000E+00  0.00000000E+00  0.00000000E+00
  0.00000000E+00  0.00000000E+00  0.00000000E+00
  0.00000000E+00  0.00000000E+00  0.00000000E+00
  0.00000000E+00  0.00000000E+00  0.00000000E+00
  0.00000000E+00  0.00000000E+00  0.00000000E+00
  0.00000000E+00  0.00000000E+00  0.00000000E+00
  0.00000000E+00  0.00000000E+00  0.00000000E+00
  0.00000000E+00  0.00000000E+00  0.00000000E+00
