Ba1I2   [HEX,HEX,hP9] (STD_PRIM doi:10.1
   1.00000000000000     
     4.6326531840710974   -8.0239906886568786    0.0000000000000000
     4.6328263343935738    8.0240906570421711    0.0000000000000000
     0.0000000000000000    0.0000000000000000    5.2697780740336242
   3   6
Direct
  0.9999986971452050  0.0000000000000000  0.5000000000000000
  0.6666777912414362  0.3333566863144435  0.0000000000000000
  0.3333211049269927  0.6666433136855565  0.0000000000000000
  0.0000092097081881  0.7430412105373269  0.0000000000000000
  0.2569679991708613  0.2569587894626731  0.0000000000000000
  0.7430225850330602  0.0000000000000000  0.0000000000000000
  0.0000022075690875  0.4078148517796759  0.5000000000000000
  0.5921873557894116  0.5921851482203241  0.5000000000000000
  0.4078130494157576 -0.0000000000000000  0.5000000000000000
 
  0.00000000E+00  0.00000000E+00  0.00000000E+00
  0.00000000E+00  0.00000000E+00  0.00000000E+00
  0.00000000E+00  0.00000000E+00  0.00000000E+00
  0.00000000E+00  0.00000000E+00  0.00000000E+00
  0.00000000E+00  0.00000000E+00  0.00000000E+00
  0.00000000E+00  0.00000000E+00  0.00000000E+00
  0.00000000E+00  0.00000000E+00  0.00000000E+00
  0.00000000E+00  0.00000000E+00  0.00000000E+00
  0.00000000E+00  0.00000000E+00  0.00000000E+00
