Mo8P5   [MCL,MCL,mP13] (STD_PRIM doi:10.
   1.00000000000000     
     3.2201766166573496    0.0000000000000000    0.0000000000000000
     0.0000000000000000    6.5823377731073149    0.0008284907642705
     0.0000000000000000    3.1747790470022510    8.9734927444414652
   8   5
Direct
  0.0000000000000000  0.9957929865964062  0.0013957298755029
  0.0000000000000000  0.7626010503637857  0.7806335551202735
  0.0000000000000000  0.2071695371823755  0.2491239941606570
  0.0000000000000000  0.6440781843545949  0.3084461210582647
  0.0000000000000000  0.2016257006261084  0.5705483318006267
  0.5000000000000000  0.6021900553287097  0.0531009874269073
  0.5000000000000000  0.3901359315562682  0.7811861360320824
  0.5000000000000000  0.8704507159652886  0.4987960337291837
  0.0000000000000000  0.5756071616057170  0.5750936458038387
  0.0000000000000000  0.3756051730995270  0.9829055874888087
  0.5000000000000000  0.9379471546079676  0.2059748613197912
  0.5000000000000000  0.3476752851241782  0.3757434006544828
  0.5000000000000000  0.0218210635890771  0.7873516155295920
 
  0.00000000E+00  0.00000000E+00  0.00000000E+00
  0.00000000E+00  0.00000000E+00  0.00000000E+00
  0.00000000E+00  0.00000000E+00  0.00000000E+00
  0.00000000E+00  0.00000000E+00  0.00000000E+00
  0.00000000E+00  0.00000000E+00  0.00000000E+00
  0.00000000E+00  0.00000000E+00  0.00000000E+00
  0.00000000E+00  0.00000000E+00  0.00000000E+00
  0.00000000E+00  0.00000000E+00  0.00000000E+00
  0.00000000E+00  0.00000000E+00  0.00000000E+00
  0.00000000E+00  0.00000000E+00  0.00000000E+00
  0.00000000E+00  0.00000000E+00  0.00000000E+00
  0.00000000E+00  0.00000000E+00  0.00000000E+00
  0.00000000E+00  0.00000000E+00  0.00000000E+00
