N2Ni1O6   [CUB,CUB,cP36] (STD_PRIM doi:1
   1.00000000000000     
     7.5281938463433118    0.0000000000000000    0.0000000000000000
     0.0000000000000000    7.5281938463433118   -0.0000000000000000
     0.0000000000000000   -0.0000000000000000    7.5281938463433118
   8   4  24
Direct
  0.3242268069196138  0.3242268069196138  0.3242268069196138
  0.1757731930803863  0.6757731930803863  0.8242268069196137
  0.6757731930803863  0.8242268069196137  0.1757731930803863
  0.8242268069196137  0.1757731930803863  0.6757731930803863
  0.6757731930803863  0.6757731930803863  0.6757731930803863
  0.8242268069196137  0.3242268069196138  0.1757731930803863
  0.3242268069196138  0.1757731930803863  0.8242268069196137
  0.1757731930803863  0.8242268069196137  0.3242268069196138
  0.0000000000000000  0.0000000000000000  0.0000000000000000
  0.5000000000000000  0.0000000000000000  0.5000000000000000
  0.0000000000000000  0.5000000000000000  0.5000000000000000
  0.5000000000000000  0.5000000000000000  0.0000000000000000
  0.2064870626224233  0.3216303631700022  0.4438010829756615
  0.2935129373775767  0.6783696368299978  0.9438010829756616
  0.7935129373775768  0.8216303631700022  0.0561989170243384
  0.7064870626224232  0.1783696368299979  0.5561989170243384
  0.4438010829756615  0.2064870626224233  0.3216303631700022
  0.9438010829756616  0.2935129373775767  0.6783696368299978
  0.0561989170243385  0.7935129373775768  0.8216303631700022
  0.5561989170243384  0.7064870626224232  0.1783696368299979
  0.3216303631700022  0.4438010829756615  0.2064870626224233
  0.6783696368299978  0.9438010829756616  0.2935129373775767
  0.8216303631700022  0.0561989170243385  0.7935129373775768
  0.1783696368299979  0.5561989170243384  0.7064870626224232
  0.7935129373775768  0.6783696368299978  0.5561989170243384
  0.7064870626224232  0.3216303631700022  0.0561989170243384
  0.2064870626224233  0.1783696368299979  0.9438010829756616
  0.2935129373775767  0.8216303631700022  0.4438010829756615
  0.5561989170243384  0.7935129373775768  0.6783696368299978
  0.0561989170243385  0.7064870626224232  0.3216303631700022
  0.9438010829756616  0.2064870626224233  0.1783696368299979
  0.4438010829756615  0.2935129373775767  0.8216303631700022
  0.6783696368299978  0.5561989170243384  0.7935129373775768
  0.3216303631700022  0.0561989170243385  0.7064870626224232
  0.1783696368299979  0.9438010829756616  0.2064870626224233
  0.8216303631700022  0.4438010829756615  0.2935129373775767
 
  0.00000000E+00  0.00000000E+00  0.00000000E+00
  0.00000000E+00  0.00000000E+00  0.00000000E+00
  0.00000000E+00  0.00000000E+00  0.00000000E+00
  0.00000000E+00  0.00000000E+00  0.00000000E+00
  0.00000000E+00  0.00000000E+00  0.00000000E+00
  0.00000000E+00  0.00000000E+00  0.00000000E+00
  0.00000000E+00  0.00000000E+00  0.00000000E+00
  0.00000000E+00  0.00000000E+00  0.00000000E+00
  0.00000000E+00  0.00000000E+00  0.00000000E+00
  0.00000000E+00  0.00000000E+00  0.00000000E+00
  0.00000000E+00  0.00000000E+00  0.00000000E+00
  0.00000000E+00  0.00000000E+00  0.00000000E+00
  0.00000000E+00  0.00000000E+00  0.00000000E+00
  0.00000000E+00  0.00000000E+00  0.00000000E+00
  0.00000000E+00  0.00000000E+00  0.00000000E+00
  0.00000000E+00  0.00000000E+00  0.00000000E+00
  0.00000000E+00  0.00000000E+00  0.00000000E+00
  0.00000000E+00  0.00000000E+00  0.00000000E+00
  0.00000000E+00  0.00000000E+00  0.00000000E+00
  0.00000000E+00  0.00000000E+00  0.00000000E+00
  0.00000000E+00  0.00000000E+00  0.00000000E+00
  0.00000000E+00  0.00000000E+00  0.00000000E+00
  0.00000000E+00  0.00000000E+00  0.00000000E+00
  0.00000000E+00  0.00000000E+00  0.00000000E+00
  0.00000000E+00  0.00000000E+00  0.00000000E+00
  0.00000000E+00  0.00000000E+00  0.00000000E+00
  0.00000000E+00  0.00000000E+00  0.00000000E+00
  0.00000000E+00  0.00000000E+00  0.00000000E+00
  0.00000000E+00  0.00000000E+00  0.00000000E+00
  0.00000000E+00  0.00000000E+00  0.00000000E+00
  0.00000000E+00  0.00000000E+00  0.00000000E+00
  0.00000000E+00  0.00000000E+00  0.00000000E+00
  0.00000000E+00  0.00000000E+00  0.00000000E+00
  0.00000000E+00  0.00000000E+00  0.00000000E+00
  0.00000000E+00  0.00000000E+00  0.00000000E+00
  0.00000000E+00  0.00000000E+00  0.00000000E+00
