Al1F4Rb1   [TET,TET,tP6] (STD_PRIM doi:1
   1.00000000000000     
     3.7176290439372122    0.0000000000000000    0.0000000000000000
     0.0000000000000000    3.7176290439372122    0.0000000000000000
     0.0000000000000000    0.0000000000000000    6.3994918738517690
   1   4   1
Direct
  0.0000000000000000  0.0000000000000000  0.0000000000000000
  0.5000000000000000  0.0000000000000000  0.0000000000000000
  0.0000000000000000  0.5000000000000000  0.0000000000000000
  0.0000000000000000  0.0000000000000000  0.2789244977583809
 -0.0000000000000000 -0.0000000000000000  0.7210755022416191
  0.5000000000000000  0.5000000000000000  0.5000000000000000
 
  0.00000000E+00  0.00000000E+00  0.00000000E+00
  0.00000000E+00  0.00000000E+00  0.00000000E+00
  0.00000000E+00  0.00000000E+00  0.00000000E+00
  0.00000000E+00  0.00000000E+00  0.00000000E+00
  0.00000000E+00  0.00000000E+00  0.00000000E+00
  0.00000000E+00  0.00000000E+00  0.00000000E+00
