Mo1P1Rh1   [ORC,ORC,oP12] (STD_PRIM doi:
   1.00000000000000     
     3.9349741725299228    0.0000000000000000    0.0000000000000000
     0.0000000000000000    5.9964196312219071    0.0000000000000000
     0.0000000000000000    0.0000000000000000    7.0140852282605834
   4   4   4
Direct
  0.2500000000000000  0.0338091974700859  0.1637616319153960
  0.7500000000000000  0.4661908025299140  0.6637616319153961
  0.7500000000000000  0.9661908025299141  0.8362383680846039
  0.2500000000000000  0.5338091974700859  0.3362383680846041
  0.2500000000000000  0.7502984696736638  0.6156478416609487
  0.7500000000000000  0.7497015303263362  0.1156478416609486
  0.7500000000000000  0.2497015303263363  0.3843521583390514
  0.2500000000000000  0.2502984696736638  0.8843521583390513
  0.2500000000000000  0.1376697344374374  0.5715992873654302
  0.7500000000000000  0.3623302655625626  0.0715992873654302
  0.7500000000000000  0.8623302655625626  0.4284007126345698
  0.2500000000000000  0.6376697344374374  0.9284007126345698
 
  0.00000000E+00  0.00000000E+00  0.00000000E+00
  0.00000000E+00  0.00000000E+00  0.00000000E+00
  0.00000000E+00  0.00000000E+00  0.00000000E+00
  0.00000000E+00  0.00000000E+00  0.00000000E+00
  0.00000000E+00  0.00000000E+00  0.00000000E+00
  0.00000000E+00  0.00000000E+00  0.00000000E+00
  0.00000000E+00  0.00000000E+00  0.00000000E+00
  0.00000000E+00  0.00000000E+00  0.00000000E+00
  0.00000000E+00  0.00000000E+00  0.00000000E+00
  0.00000000E+00  0.00000000E+00  0.00000000E+00
  0.00000000E+00  0.00000000E+00  0.00000000E+00
  0.00000000E+00  0.00000000E+00  0.00000000E+00
