Hf1   [HEX,HEX,hP2] (STD_PRIM doi:10.101
   1.00000000000000     
     1.6002851688327158   -2.7716699344732572    0.0000000000000000
     1.6002851688327158    2.7716699344732572    0.0000000000000000
     0.0000000000000000    0.0000000000000000    5.0567427239022740
   2
Direct
  0.3333128608107808  0.6666871391892193  0.2500000000000000
  0.6666871391892193  0.3333128608107808  0.7500000000000000
 
  0.00000000E+00  0.00000000E+00  0.00000000E+00
  0.00000000E+00  0.00000000E+00  0.00000000E+00
