Cd2Ge2Sr1   [BCT,BCT2,tI10] (STD_PRIM do
   1.00000000000000     
    -2.2720916126261712    2.2720916126261712    5.9787288955382563
     2.2720916126261712   -2.2720916126261712    5.9787288955382563
     2.2720916126261712    2.2720916126261712   -5.9787288955382563
   2   2   1
Direct
  0.7500000000000000  0.2500000000000000  0.5000000000000000
  0.2500000000000000  0.7500000000000000  0.5000000000000000
  0.3927860381969133  0.3927860381969133  0.0000000000000000
  0.6072139618030867  0.6072139618030867  0.0000000000000000
 -0.0000000000000000 -0.0000000000000000  0.0000000000000000
 
  0.00000000E+00  0.00000000E+00  0.00000000E+00
  0.00000000E+00  0.00000000E+00  0.00000000E+00
  0.00000000E+00  0.00000000E+00  0.00000000E+00
  0.00000000E+00  0.00000000E+00  0.00000000E+00
  0.00000000E+00  0.00000000E+00  0.00000000E+00
