La2O7Sn2   [FCC,FCC,cF88] (STD_PRIM doi:
   1.22474500000000     
     0.0000000000000000    4.4793727162534589    4.4793727162534589
     4.4793727162534589    0.0000000000000000    4.4793727162534589
     4.4793727162534589    4.4793727162534589   -0.0000000000000000
   4  14   4
Direct
 -0.0000000000000000 -0.0000000000000000  0.0000000000000000
 -0.0000000000000000 -0.0000000000000000  0.5000000000000000
  0.5000000000000000  0.0000000000000000  0.5000000000000000
  0.0000000000000000  0.5000000000000000  0.5000000000000000
  0.1250000000000000  0.1250000000000000  0.6250000000000000
  0.8750000000000000  0.8750000000000000  0.3750000000000000
  0.4167082865352036  0.8332917134647964  0.3332917134647964
  0.8332917134647964  0.4167082865352036  0.9167082865352036
  0.8332917134647964  0.4167082865352036  0.3332917134647964
  0.4167082865352036  0.8332917134647964  0.9167082865352036
  0.4167082865352036  0.4167082865352036  0.3332917134647964
  0.8332917134647964  0.8332917134647964  0.9167082865352036
  0.5832917134647964  0.1667082865352036  0.0832917134647964
  0.1667082865352036  0.5832917134647964  0.6667082865352036
  0.1667082865352036  0.5832917134647964  0.0832917134647964
  0.5832917134647964  0.1667082865352036  0.6667082865352036
  0.5832917134647964  0.5832917134647964  0.6667082865352036
  0.1667082865352036  0.1667082865352036  0.0832917134647964
  0.5000000000000000  0.5000000000000000  0.5000000000000000
  0.5000000000000000  0.5000000000000000  0.0000000000000000
  0.0000000000000000  0.5000000000000000  0.0000000000000000
  0.5000000000000000 -0.0000000000000000 -0.0000000000000000
 
  0.00000000E+00  0.00000000E+00  0.00000000E+00
  0.00000000E+00  0.00000000E+00  0.00000000E+00
  0.00000000E+00  0.00000000E+00  0.00000000E+00
  0.00000000E+00  0.00000000E+00  0.00000000E+00
  0.00000000E+00  0.00000000E+00  0.00000000E+00
  0.00000000E+00  0.00000000E+00  0.00000000E+00
  0.00000000E+00  0.00000000E+00  0.00000000E+00
  0.00000000E+00  0.00000000E+00  0.00000000E+00
  0.00000000E+00  0.00000000E+00  0.00000000E+00
  0.00000000E+00  0.00000000E+00  0.00000000E+00
  0.00000000E+00  0.00000000E+00  0.00000000E+00
  0.00000000E+00  0.00000000E+00  0.00000000E+00
  0.00000000E+00  0.00000000E+00  0.00000000E+00
  0.00000000E+00  0.00000000E+00  0.00000000E+00
  0.00000000E+00  0.00000000E+00  0.00000000E+00
  0.00000000E+00  0.00000000E+00  0.00000000E+00
  0.00000000E+00  0.00000000E+00  0.00000000E+00
  0.00000000E+00  0.00000000E+00  0.00000000E+00
  0.00000000E+00  0.00000000E+00  0.00000000E+00
  0.00000000E+00  0.00000000E+00  0.00000000E+00
  0.00000000E+00  0.00000000E+00  0.00000000E+00
  0.00000000E+00  0.00000000E+00  0.00000000E+00
