Er2Ge2Mg1   [TET,TET,tP10] (STD_PRIM doi
   1.00000000000000     
     7.2119311953937295    0.0000000000000000    0.0000000000000000
     0.0000000000000000    7.2119311953937295    0.0000000000000000
     0.0000000000000000    0.0000000000000000    4.2097897821904899
   4   4   2
Direct
  0.1771104514187485  0.6771104514187485  0.5000000000000000
  0.8228895485812515  0.3228895485812515  0.5000000000000000
  0.3228895485812515  0.1771104514187485  0.5000000000000000
  0.6771104514187485  0.8228895485812515  0.5000000000000000
  0.3755035468663124  0.8755035468663124  0.0000000000000000
  0.6244964531336876  0.1244964531336876  0.0000000000000000
  0.1244964531336876  0.3755035468663124  0.0000000000000000
  0.8755035468663124  0.6244964531336876  0.0000000000000000
  0.0000000000000000  0.0000000000000000  0.0000000000000000
  0.5000000000000000  0.5000000000000000  0.0000000000000000
 
  0.00000000E+00  0.00000000E+00  0.00000000E+00
  0.00000000E+00  0.00000000E+00  0.00000000E+00
  0.00000000E+00  0.00000000E+00  0.00000000E+00
  0.00000000E+00  0.00000000E+00  0.00000000E+00
  0.00000000E+00  0.00000000E+00  0.00000000E+00
  0.00000000E+00  0.00000000E+00  0.00000000E+00
  0.00000000E+00  0.00000000E+00  0.00000000E+00
  0.00000000E+00  0.00000000E+00  0.00000000E+00
  0.00000000E+00  0.00000000E+00  0.00000000E+00
  0.00000000E+00  0.00000000E+00  0.00000000E+00
