As1Fe1Li1   [TET,TET,tP6] (STD_PRIM doi:
   1.00000000000000     
     3.7879671090103333   -0.0000000000000000   -0.0000000000000000
    -0.0000000000000000    3.7879671090103333    0.0000000000000000
    -0.0000000000000000    0.0000000000000000    6.1059037072068429
   2   2   2
Direct
  0.2500000000000000  0.2500000000000000  0.2783836496593231
  0.7500000000000000  0.7500000000000000  0.7216163503406769
  0.7500000000000000  0.2500000000000000  0.5000000000000000
  0.2500000000000000  0.7500000000000000  0.5000000000000000
  0.2500000000000000  0.2500000000000000  0.8324201920043021
  0.7500000000000000  0.7500000000000000  0.1675798079956980
 
  0.00000000E+00  0.00000000E+00  0.00000000E+00
  0.00000000E+00  0.00000000E+00  0.00000000E+00
  0.00000000E+00  0.00000000E+00  0.00000000E+00
  0.00000000E+00  0.00000000E+00  0.00000000E+00
  0.00000000E+00  0.00000000E+00  0.00000000E+00
  0.00000000E+00  0.00000000E+00  0.00000000E+00
