Cl6Pb1Rb2   [FCC,FCC,cF36] (STD_PRIM doi
   1.22474500000000     
    -0.0000000000000000    4.3120674185346122    4.3120674185346122
     4.3120674185346122    0.0000000000000000    4.3120674185346122
     4.3120674185346122    4.3120674185346122   -0.0000000000000000
   6   1   2
Direct
  0.2428599118600448  0.7571400881399553  0.2428599118600448
  0.7571400881399553  0.2428599118600448  0.7571400881399553
  0.2428599118600448  0.7571400881399553  0.7571400881399553
  0.7571400881399553  0.2428599118600448  0.2428599118600448
  0.2428599118600448  0.2428599118600448  0.7571400881399553
  0.7571400881399553  0.7571400881399553  0.2428599118600448
 -0.0000000000000000 -0.0000000000000000  0.0000000000000000
  0.7500000000000000  0.7500000000000000  0.7500000000000000
  0.2500000000000000  0.2500000000000000  0.2500000000000000
 
  0.00000000E+00  0.00000000E+00  0.00000000E+00
  0.00000000E+00  0.00000000E+00  0.00000000E+00
  0.00000000E+00  0.00000000E+00  0.00000000E+00
  0.00000000E+00  0.00000000E+00  0.00000000E+00
  0.00000000E+00  0.00000000E+00  0.00000000E+00
  0.00000000E+00  0.00000000E+00  0.00000000E+00
  0.00000000E+00  0.00000000E+00  0.00000000E+00
  0.00000000E+00  0.00000000E+00  0.00000000E+00
  0.00000000E+00  0.00000000E+00  0.00000000E+00
