Co3S4   [FCC,FCC,cF56] (STD_PRIM doi:10.
   1.22474500000000     
    -0.0000000000000000    3.9428300251406503    3.9428300251406503
     3.9428300251406503   -0.0000000000000000    3.9428300251406503
     3.9428300251406503    3.9428300251406503   -0.0000000000000000
   6   8
Direct
 -0.0000000000000000 -0.0000000000000000 -0.0000000000000000
  0.2500000000000000  0.2500000000000000  0.2500000000000000
  0.6250000000000000  0.1250000000000000  0.6250000000000000
  0.1250000000000000  0.6250000000000000  0.6250000000000000
  0.6250000000000000  0.6250000000000000  0.6250000000000000
  0.6250000000000000  0.6250000000000000  0.1250000000000000
  0.3891229646612885  0.8326311060161273  0.3891229646612885
  0.8326311060161273  0.3891229646612885  0.3891229646612885
  0.3891229646612885  0.3891229646612885  0.3891229646612885
  0.3891229646612885  0.3891229646612885  0.8326311060161273
  0.4173688939838726  0.8608770353387115  0.8608770353387115
  0.8608770353387115  0.4173688939838726  0.8608770353387115
  0.8608770353387115  0.8608770353387115  0.8608770353387115
  0.8608770353387115  0.8608770353387115  0.4173688939838726
 
  0.00000000E+00  0.00000000E+00  0.00000000E+00
  0.00000000E+00  0.00000000E+00  0.00000000E+00
  0.00000000E+00  0.00000000E+00  0.00000000E+00
  0.00000000E+00  0.00000000E+00  0.00000000E+00
  0.00000000E+00  0.00000000E+00  0.00000000E+00
  0.00000000E+00  0.00000000E+00  0.00000000E+00
  0.00000000E+00  0.00000000E+00  0.00000000E+00
  0.00000000E+00  0.00000000E+00  0.00000000E+00
  0.00000000E+00  0.00000000E+00  0.00000000E+00
  0.00000000E+00  0.00000000E+00  0.00000000E+00
  0.00000000E+00  0.00000000E+00  0.00000000E+00
  0.00000000E+00  0.00000000E+00  0.00000000E+00
  0.00000000E+00  0.00000000E+00  0.00000000E+00
  0.00000000E+00  0.00000000E+00  0.00000000E+00
