F10K1Tb3   [FCC,FCC,cF112] (STD_PRIM doi
   1.22474500000000     
    -0.0000000000000000    4.7904329007852873    4.7904329007852873
     4.7904329007852873    0.0000000000000000    4.7904329007852873
     4.7904329007852873    4.7904329007852873   -0.0000000000000000
  20   2   6
Direct
  0.5000000000000000  0.1701023293308386  0.8298976706691613
  0.8298976706691613  0.5000000000000000  0.5000000000000000
  0.1701023293308386  0.5000000000000000  0.5000000000000000
  0.5000000000000000  0.8298976706691613  0.1701023293308386
  0.8298976706691613  0.1701023293308386  0.5000000000000000
  0.5000000000000000  0.5000000000000000  0.1701023293308386
  0.5000000000000000  0.5000000000000000  0.8298976706691613
  0.1701023293308386  0.8298976706691613  0.5000000000000000
  0.5000000000000000  0.1701023293308386  0.5000000000000000
  0.1701023293308386  0.5000000000000000  0.8298976706691613
  0.8298976706691613  0.5000000000000000  0.1701023293308386
  0.5000000000000000  0.8298976706691613  0.5000000000000000
  0.8882994498586200  0.3351016504241472  0.8882994498586200
  0.8882994498586200  0.8882994498586200  0.8882994498586200
  0.3351016504241472  0.8882994498586200  0.8882994498586200
  0.8882994498586200  0.8882994498586200  0.3351016504241472
  0.1117005501413800  0.1117005501413800  0.1117005501413800
  0.1117005501413800  0.6648983495758528  0.1117005501413800
  0.6648983495758528  0.1117005501413800  0.1117005501413800
  0.1117005501413800  0.1117005501413800  0.6648983495758528
  0.7500000000000000  0.7500000000000000  0.7500000000000000
  0.2500000000000000  0.2500000000000000  0.2500000000000000
  0.7596432897820925  0.2403567102179075  0.2403567102179075
  0.2403567102179075  0.7596432897820925  0.7596432897820925
  0.2403567102179075  0.2403567102179075  0.7596432897820925
  0.7596432897820925  0.7596432897820925  0.2403567102179075
  0.7596432897820925  0.2403567102179075  0.7596432897820925
  0.2403567102179075  0.7596432897820925  0.2403567102179075
 
  0.00000000E+00  0.00000000E+00  0.00000000E+00
  0.00000000E+00  0.00000000E+00  0.00000000E+00
  0.00000000E+00  0.00000000E+00  0.00000000E+00
  0.00000000E+00  0.00000000E+00  0.00000000E+00
  0.00000000E+00  0.00000000E+00  0.00000000E+00
  0.00000000E+00  0.00000000E+00  0.00000000E+00
  0.00000000E+00  0.00000000E+00  0.00000000E+00
  0.00000000E+00  0.00000000E+00  0.00000000E+00
  0.00000000E+00  0.00000000E+00  0.00000000E+00
  0.00000000E+00  0.00000000E+00  0.00000000E+00
  0.00000000E+00  0.00000000E+00  0.00000000E+00
  0.00000000E+00  0.00000000E+00  0.00000000E+00
  0.00000000E+00  0.00000000E+00  0.00000000E+00
  0.00000000E+00  0.00000000E+00  0.00000000E+00
  0.00000000E+00  0.00000000E+00  0.00000000E+00
  0.00000000E+00  0.00000000E+00  0.00000000E+00
  0.00000000E+00  0.00000000E+00  0.00000000E+00
  0.00000000E+00  0.00000000E+00  0.00000000E+00
  0.00000000E+00  0.00000000E+00  0.00000000E+00
  0.00000000E+00  0.00000000E+00  0.00000000E+00
  0.00000000E+00  0.00000000E+00  0.00000000E+00
  0.00000000E+00  0.00000000E+00  0.00000000E+00
  0.00000000E+00  0.00000000E+00  0.00000000E+00
  0.00000000E+00  0.00000000E+00  0.00000000E+00
  0.00000000E+00  0.00000000E+00  0.00000000E+00
  0.00000000E+00  0.00000000E+00  0.00000000E+00
  0.00000000E+00  0.00000000E+00  0.00000000E+00
  0.00000000E+00  0.00000000E+00  0.00000000E+00
