Re2W1   [HEX,HEX,hP12] (STD_PRIM doi:10.
   1.00000000000000     
     2.5758522892102325   -4.4615140469022876    0.0000000000000000
     2.5758522892102325    4.4615140469022876   -0.0000000000000000
     0.0000000000000000   -0.0000000000000000    8.3780835312379711
   8   4
Direct
 -0.0000000000000000 -0.0000000000000000  0.0000000000000000
  0.0000000000000000  0.0000000000000000  0.5000000000000000
  0.8277996084246125  0.6556186887252263  0.2500000000000000
  0.3443813112747738  0.1722003915753874  0.2500000000000000
  0.8278081702836261  0.1721918297163739  0.2500000000000000
  0.1722003915753874  0.3443813112747738  0.7500000000000000
  0.6556186887252263  0.8277996084246125  0.7500000000000000
  0.1721918297163739  0.8278081702836261  0.7500000000000000
  0.3333167262913818  0.6666832737086182  0.0648910085041773
  0.6666832737086182  0.3333167262913818  0.5648910085041773
  0.6666832737086182  0.3333167262913818  0.9351089914958227
  0.3333167262913818  0.6666832737086182  0.4351089914958228
 
  0.00000000E+00  0.00000000E+00  0.00000000E+00
  0.00000000E+00  0.00000000E+00  0.00000000E+00
  0.00000000E+00  0.00000000E+00  0.00000000E+00
  0.00000000E+00  0.00000000E+00  0.00000000E+00
  0.00000000E+00  0.00000000E+00  0.00000000E+00
  0.00000000E+00  0.00000000E+00  0.00000000E+00
  0.00000000E+00  0.00000000E+00  0.00000000E+00
  0.00000000E+00  0.00000000E+00  0.00000000E+00
  0.00000000E+00  0.00000000E+00  0.00000000E+00
  0.00000000E+00  0.00000000E+00  0.00000000E+00
  0.00000000E+00  0.00000000E+00  0.00000000E+00
  0.00000000E+00  0.00000000E+00  0.00000000E+00
