Cd1Ho1Ni4   [FCC,FCC,cF24] (STD_PRIM doi
   1.22474500000000     
    -0.0000000000000000    2.8567438717995812    2.8567438717995812
     2.8567438717995812    0.0000000000000000    2.8567438717995812
     2.8567438717995812    2.8567438717995812   -0.0000000000000000
   1   1   4
Direct
 -0.0000000000000000 -0.0000000000000000 -0.0000000000000000
  0.7500000000000000  0.7500000000000000  0.7500000000000000
  0.8779682291635516  0.3740105902788185  0.3740105902788185
  0.3740105902788185  0.3740105902788185  0.8779682291635516
  0.3740105902788185  0.8779682291635516  0.3740105902788185
  0.3740105902788185  0.3740105902788185  0.3740105902788185
 
  0.00000000E+00  0.00000000E+00  0.00000000E+00
  0.00000000E+00  0.00000000E+00  0.00000000E+00
  0.00000000E+00  0.00000000E+00  0.00000000E+00
  0.00000000E+00  0.00000000E+00  0.00000000E+00
  0.00000000E+00  0.00000000E+00  0.00000000E+00
  0.00000000E+00  0.00000000E+00  0.00000000E+00
