Ir4Sn4Sr3   [BCC,BCC,cI22] (STD_PRIM doi
   1.00000000000000     
    -4.0939314136603144    4.0939314136603144    4.0939314136603144
     4.0939314136603144   -4.0939314136603144    4.0939314136603144
     4.0939314136603144    4.0939314136603144   -4.0939314136603144
   4   4   3
Direct
  0.0000000000000000  0.7550681395182611 -0.0000000000000000
 -0.0000000000000000  0.0000000000000000  0.7550681395182611
  0.7550681395182611  0.0000000000000000  0.0000000000000000
  0.2449318604817388  0.2449318604817388  0.2449318604817388
  0.0000000000000000  0.3885462665128254 -0.0000000000000000
 -0.0000000000000000 -0.0000000000000000  0.3885462665128254
  0.3885462665128254 -0.0000000000000000 -0.0000000000000000
  0.6114537334871747  0.6114537334871747  0.6114537334871747
  0.5000000000000000 -0.0000000000000000  0.5000000000000000
  0.5000000000000000  0.5000000000000000 -0.0000000000000000
  0.0000000000000000  0.5000000000000000  0.5000000000000000
 
  0.00000000E+00  0.00000000E+00  0.00000000E+00
  0.00000000E+00  0.00000000E+00  0.00000000E+00
  0.00000000E+00  0.00000000E+00  0.00000000E+00
  0.00000000E+00  0.00000000E+00  0.00000000E+00
  0.00000000E+00  0.00000000E+00  0.00000000E+00
  0.00000000E+00  0.00000000E+00  0.00000000E+00
  0.00000000E+00  0.00000000E+00  0.00000000E+00
  0.00000000E+00  0.00000000E+00  0.00000000E+00
  0.00000000E+00  0.00000000E+00  0.00000000E+00
  0.00000000E+00  0.00000000E+00  0.00000000E+00
  0.00000000E+00  0.00000000E+00  0.00000000E+00
