B6Yb1   [CUB,CUB,cP7] (STD_PRIM doi:10.1
   1.00000000000000     
     4.1437379743292286   -0.0000000000000000   -0.0000000000000000
     0.0000000000000000    4.1437379743292286   -0.0000000000000000
     0.0000000000000000    0.0000000000000000    4.1437379743292286
   6   1
Direct
  0.2015640191302759  0.5000000000000000  0.5000000000000000
  0.7984359808697241  0.5000000000000000  0.5000000000000000
  0.5000000000000000  0.2015640191302759  0.5000000000000000
  0.5000000000000000  0.7984359808697241  0.5000000000000000
  0.5000000000000000  0.5000000000000000  0.2015640191302759
  0.5000000000000000  0.5000000000000000  0.7984359808697241
  0.0000000000000000  0.0000000000000000  0.0000000000000000
 
  0.00000000E+00  0.00000000E+00  0.00000000E+00
  0.00000000E+00  0.00000000E+00  0.00000000E+00
  0.00000000E+00  0.00000000E+00  0.00000000E+00
  0.00000000E+00  0.00000000E+00  0.00000000E+00
  0.00000000E+00  0.00000000E+00  0.00000000E+00
  0.00000000E+00  0.00000000E+00  0.00000000E+00
  0.00000000E+00  0.00000000E+00  0.00000000E+00
