Cd1Sb1Tl1   [ORC,ORC,oP12] (STD_PRIM doi
   1.00000000000000     
     4.9778546472915171    0.0000000000000000    0.0000000000000000
    -0.0000000000000000    8.4527222620252473    0.0000000000000000
     0.0000000000000000    0.0000000000000000    8.5214611576575567
   4   4   4
Direct
  0.7500000000000000  0.8427151371095370  0.5868885624342500
  0.2500000000000000  0.6572848628904630  0.0868885624342501
  0.2500000000000000  0.1572848628904630  0.4131114375657499
  0.7500000000000000  0.3427151371095369  0.9131114375657500
  0.7500000000000000  0.7030010619396269  0.9033577625299591
  0.2500000000000000  0.7969989380603731  0.4033577625299591
  0.2500000000000000  0.2969989380603731  0.0966422374700409
  0.7500000000000000  0.2030010619396269  0.5966422374700409
  0.7500000000000000  0.4950279410015954  0.3227860322870919
  0.2500000000000000  0.0049720589984045  0.8227860322870919
  0.2500000000000000  0.5049720589984045  0.6772139677129081
  0.7500000000000000  0.9950279410015955  0.1772139677129081
 
  0.00000000E+00  0.00000000E+00  0.00000000E+00
  0.00000000E+00  0.00000000E+00  0.00000000E+00
  0.00000000E+00  0.00000000E+00  0.00000000E+00
  0.00000000E+00  0.00000000E+00  0.00000000E+00
  0.00000000E+00  0.00000000E+00  0.00000000E+00
  0.00000000E+00  0.00000000E+00  0.00000000E+00
  0.00000000E+00  0.00000000E+00  0.00000000E+00
  0.00000000E+00  0.00000000E+00  0.00000000E+00
  0.00000000E+00  0.00000000E+00  0.00000000E+00
  0.00000000E+00  0.00000000E+00  0.00000000E+00
  0.00000000E+00  0.00000000E+00  0.00000000E+00
  0.00000000E+00  0.00000000E+00  0.00000000E+00
