Cl6Mn1Rb2   [FCC,FCC,cF36] (STD_PRIM doi
   1.22474500000000     
     0.0000000000000000    4.1489084876021520    4.1489084876021520
     4.1489084876021520    0.0000000000000000    4.1489084876021520
     4.1489084876021520    4.1489084876021520    0.0000000000000000
   6   1   2
Direct
  0.7708605730771936  0.2291394269228064  0.7708605730771936
  0.2291394269228064  0.7708605730771936  0.2291394269228064
  0.2291394269228064  0.2291394269228064  0.7708605730771936
  0.7708605730771936  0.7708605730771936  0.2291394269228064
  0.2291394269228064  0.7708605730771936  0.7708605730771936
  0.7708605730771936  0.2291394269228064  0.2291394269228064
  0.0000000000000000  0.0000000000000000  0.0000000000000000
  0.2500000000000000  0.2500000000000000  0.2500000000000000
  0.7500000000000000  0.7500000000000000  0.7500000000000000
 
  0.00000000E+00  0.00000000E+00  0.00000000E+00
  0.00000000E+00  0.00000000E+00  0.00000000E+00
  0.00000000E+00  0.00000000E+00  0.00000000E+00
  0.00000000E+00  0.00000000E+00  0.00000000E+00
  0.00000000E+00  0.00000000E+00  0.00000000E+00
  0.00000000E+00  0.00000000E+00  0.00000000E+00
  0.00000000E+00  0.00000000E+00  0.00000000E+00
  0.00000000E+00  0.00000000E+00  0.00000000E+00
  0.00000000E+00  0.00000000E+00  0.00000000E+00
