Al1Si1Sr1   [HEX,HEX,hP3] (STD_PRIM doi:
   1.00000000000000     
     2.1341330091377162   -3.6961289321428148    0.0000000000000000
     2.1341330091377162    3.6961289321428148    0.0000000000000000
     0.0000000000000000    0.0000000000000000    4.7549563382498024
   1   1   1
Direct
  0.3333232061592781  0.6666767938407219  0.5000000000000000
  0.6666772757167507  0.3333227242832493  0.5000000000000000
  0.9999995181239711  0.0000004818760289  0.0000000000000000
 
  0.00000000E+00  0.00000000E+00  0.00000000E+00
  0.00000000E+00  0.00000000E+00  0.00000000E+00
  0.00000000E+00  0.00000000E+00  0.00000000E+00
