Ge1Ru1Sc1   [HEX,HEX,hP9] (STD_PRIM doi:
   1.00000000000000     
     3.5321340360157167   -6.1179657904065197    0.0000000000000000
     3.5321340360157167    6.1179657904065197    0.0000000000000000
     0.0000000000000000    0.0000000000000000    3.4798082721638859
   3   3   3
Direct
  0.3333404929343468  0.6666538025678378  0.5000000000000000
  0.6666538025678378  0.3333404929343468  0.5000000000000000
  0.0000019754836056  0.0000019754836056  0.0000000000000000
  0.2519796121253436 -0.0000008179800415  0.5000000000000000
 -0.0000008179800415  0.2519796121253436  0.5000000000000000
  0.7480238573500885  0.7480238573500885  0.5000000000000000
  0.5996270298716195  0.0000015584644495  0.0000000000000000
  0.0000015584644495  0.5996270298716195  0.0000000000000000
  0.4003724891827430  0.4003724891827430  0.0000000000000000
 
  0.00000000E+00  0.00000000E+00  0.00000000E+00
  0.00000000E+00  0.00000000E+00  0.00000000E+00
  0.00000000E+00  0.00000000E+00  0.00000000E+00
  0.00000000E+00  0.00000000E+00  0.00000000E+00
  0.00000000E+00  0.00000000E+00  0.00000000E+00
  0.00000000E+00  0.00000000E+00  0.00000000E+00
  0.00000000E+00  0.00000000E+00  0.00000000E+00
  0.00000000E+00  0.00000000E+00  0.00000000E+00
  0.00000000E+00  0.00000000E+00  0.00000000E+00
