Co1Si1V1   [ORC,ORC,oP12] (STD_PRIM doi:
   1.00000000000000     
     3.5282920565047671    0.0000000000000000    0.0000000000000000
     0.0000000000000000    5.9777912123748829    0.0000000000000000
     0.0000000000000000    0.0000000000000000    6.7679651786928092
   4   4   4
Direct
  0.2500000000000000  0.1411053311977292  0.5632652663033378
  0.7500000000000000  0.3588946688022707  0.0632652663033379
  0.7500000000000000  0.8588946688022711  0.4367347336966622
  0.2500000000000000  0.6411053311977289  0.9367347336966622
  0.2500000000000000  0.2722265130773591  0.8786434596569180
  0.7500000000000000  0.2277734869226409  0.3786434596569180
  0.7500000000000000  0.7277734869226408  0.1213565403430820
  0.2500000000000000  0.7722265130773592  0.6213565403430820
  0.2500000000000000  0.0208900994301902  0.1777174297169346
  0.7500000000000000  0.4791099005698098  0.6777174297169347
  0.7500000000000000  0.9791099005698098  0.8222825702830653
  0.2500000000000000  0.5208900994301902  0.3222825702830653
 
  0.00000000E+00  0.00000000E+00  0.00000000E+00
  0.00000000E+00  0.00000000E+00  0.00000000E+00
  0.00000000E+00  0.00000000E+00  0.00000000E+00
  0.00000000E+00  0.00000000E+00  0.00000000E+00
  0.00000000E+00  0.00000000E+00  0.00000000E+00
  0.00000000E+00  0.00000000E+00  0.00000000E+00
  0.00000000E+00  0.00000000E+00  0.00000000E+00
  0.00000000E+00  0.00000000E+00  0.00000000E+00
  0.00000000E+00  0.00000000E+00  0.00000000E+00
  0.00000000E+00  0.00000000E+00  0.00000000E+00
  0.00000000E+00  0.00000000E+00  0.00000000E+00
  0.00000000E+00  0.00000000E+00  0.00000000E+00
