Se2Ta1   [HEX,HEX,hP6] (STD_PRIM doi:10.
   1.00000000000000     
     1.7468147495142321   -3.0253230911678228    0.0000000000000000
     1.7468147495142321    3.0253230911678228   -0.0000000000000000
     0.0000000000000000   -0.0000000000000000   13.8525412977670808
   4   2
Direct
  0.3333213369161717  0.6666786630838283  0.1281306527414529
  0.6666786630838283  0.3333213369161717  0.6281306527414530
  0.6666786630838283  0.3333213369161717  0.8718693472585470
  0.3333213369161717  0.6666786630838283  0.3718693472585471
  0.9999748277386625  0.0000251722613375  0.2500000000000000
  0.0000251722613375  0.9999748277386625  0.7500000000000000
 
  0.00000000E+00  0.00000000E+00  0.00000000E+00
  0.00000000E+00  0.00000000E+00  0.00000000E+00
  0.00000000E+00  0.00000000E+00  0.00000000E+00
  0.00000000E+00  0.00000000E+00  0.00000000E+00
  0.00000000E+00  0.00000000E+00  0.00000000E+00
  0.00000000E+00  0.00000000E+00  0.00000000E+00
