Ni2P2Tb1   [BCT,BCT2,tI10] (STD_PRIM doi
   1.00000000000000     
    -1.9337510794081785    1.9337510794081785    4.6663165309107901
     1.9337510794081785   -1.9337510794081785    4.6663165309107901
     1.9337510794081785    1.9337510794081785   -4.6663165309107901
   2   2   1
Direct
  0.7500000000000000  0.2500000000000000  0.5000000000000000
  0.2500000000000000  0.7500000000000000  0.5000000000000000
  0.6241110567639115  0.6241110567639115  0.0000000000000000
  0.3758889432360884  0.3758889432360884 -0.0000000000000000
 -0.0000000000000000 -0.0000000000000000  0.0000000000000000
 
  0.00000000E+00  0.00000000E+00  0.00000000E+00
  0.00000000E+00  0.00000000E+00  0.00000000E+00
  0.00000000E+00  0.00000000E+00  0.00000000E+00
  0.00000000E+00  0.00000000E+00  0.00000000E+00
  0.00000000E+00  0.00000000E+00  0.00000000E+00
