Si1   [BCT,BCT1,tI8] (STD_PRIM doi:10.10
   1.00000000000000     
    -3.3440365141047481    3.3440365141047481    1.9296518888991328
     3.3440365141047481   -3.3440365141047481    1.9296518888991328
     3.3440365141047481    3.3440365141047481   -1.9296518888991328
   4
Direct
  0.1786366003500382  0.8213633996499619  0.0000000000000000
  0.8213633996499619  0.1786366003500382  0.0000000000000000
  0.8213633996499619  0.8213633996499619  0.6427267992999308
  0.1786366003500382  0.1786366003500382  0.3572732007000692
 
  0.00000000E+00  0.00000000E+00  0.00000000E+00
  0.00000000E+00  0.00000000E+00  0.00000000E+00
  0.00000000E+00  0.00000000E+00  0.00000000E+00
  0.00000000E+00  0.00000000E+00  0.00000000E+00
