Ba1Bi1Na1   [HEX,HEX,hP9] (STD_PRIM doi:
   1.00000000000000     
     4.3470869667531735   -7.5294086888979823    0.0000000000000000
     4.3470869667531735    7.5294086888979823    0.0000000000000000
     0.0000000000000000    0.0000000000000000    5.1679940161634228
   3   3   3
Direct
  0.4189796757477215  0.0000021346452373  0.0000000000000000
  0.0000021346452373  0.4189796757477215  0.0000000000000000
  0.5810179079111890  0.5810179079111890  0.0000000000000000
  0.6666853130974317  0.3333179021987434  0.5000000000000000
  0.3333179021987434  0.6666853130974317  0.5000000000000000
  0.9999982430905190  0.9999982430905190  0.0000000000000000
  0.2407375775656924  0.2407375775656924  0.5000000000000000
  0.7592641993902440 -0.0000029536467712  0.5000000000000000
 -0.0000029536467712  0.7592641993902440  0.5000000000000000
 
  0.00000000E+00  0.00000000E+00  0.00000000E+00
  0.00000000E+00  0.00000000E+00  0.00000000E+00
  0.00000000E+00  0.00000000E+00  0.00000000E+00
  0.00000000E+00  0.00000000E+00  0.00000000E+00
  0.00000000E+00  0.00000000E+00  0.00000000E+00
  0.00000000E+00  0.00000000E+00  0.00000000E+00
  0.00000000E+00  0.00000000E+00  0.00000000E+00
  0.00000000E+00  0.00000000E+00  0.00000000E+00
  0.00000000E+00  0.00000000E+00  0.00000000E+00
