Nb1Re1Si1 #189 - (Nb1Re1Si1_ICSD_645257)
    1.000000000000000     
     3.4405315863754415   -5.9591510448734688    0.0000000000000000
     3.4405315863754415    5.9591510448734688    0.0000000000000000
     0.0000000000000000    0.0000000000000000    3.3374040710381734
   3   3   3
Direct
  0.5974958539229749 -0.0000019997265764  0.5000000000000000
 -0.0000019997265764  0.5974958539229749  0.5000000000000000
  0.4025055011105081  0.4025055011105081  0.5000000000000000
  0.2575121428608138  0.0000008039228470  0.0000000000000000
  0.0000008039228470  0.2575121428608138  0.0000000000000000
  0.7424875191435253  0.7424875191435253  0.0000000000000000
  0.3333329680446089  0.6666665858894264  0.0000000000000000
  0.6666665858894264  0.3333329680446089  0.0000000000000000
  0.0000006248318649  0.0000006248318649  0.5000000000000000
 
  0.00000000E+00  0.00000000E+00  0.00000000E+00
  0.00000000E+00  0.00000000E+00  0.00000000E+00
  0.00000000E+00  0.00000000E+00  0.00000000E+00
  0.00000000E+00  0.00000000E+00  0.00000000E+00
  0.00000000E+00  0.00000000E+00  0.00000000E+00
  0.00000000E+00  0.00000000E+00  0.00000000E+00
  0.00000000E+00  0.00000000E+00  0.00000000E+00
  0.00000000E+00  0.00000000E+00  0.00000000E+00
  0.00000000E+00  0.00000000E+00  0.00000000E+00
