Cu3Dy3Sb4 #220 - (Cu3Dy3Sb4_ICSD_658643)
   1.00000000000000     
    -4.7959844743322009    4.7959844743322009    4.7959844743322009
     4.7959844743322009   -4.7959844743322009    4.7959844743322009
     4.7959844743322009    4.7959844743322009   -4.7959844743322009
   6   6   8
Direct
  0.2500000000000000  0.1250000000000000  0.8750000000000000
  0.7500000000000000  0.3750000000000000  0.6250000000000000
  0.8750000000000000  0.2500000000000000  0.1250000000000000
  0.6250000000000000  0.7500000000000000  0.3750000000000000
  0.1250000000000000  0.8750000000000000  0.2500000000000000
  0.3750000000000000  0.6250000000000000  0.7500000000000000
  0.2500000000000000  0.6250000000000000  0.3750000000000000
  0.7500000000000000  0.8750000000000000  0.1250000000000000
  0.3750000000000000  0.2500000000000000  0.6250000000000000
  0.1250000000000000  0.7500000000000000  0.8750000000000000
  0.6250000000000000  0.3750000000000000  0.2500000000000000
  0.8750000000000000  0.1250000000000000  0.7500000000000000
  0.1604072127245937  0.1604072127245937  0.1604072127245937
  0.5000000000000000  0.0000000000000000  0.3395927872754063
  0.0000000000000000  0.3395927872754063  0.5000000000000000
  0.3395927872754063  0.5000000000000000 -0.0000000000000000
  0.6604072127245937  0.6604072127245937  0.6604072127245937
  0.5000000000000000  0.0000000000000000  0.8395927872754063
  0.8395927872754063  0.5000000000000000  0.0000000000000000
  0.0000000000000000  0.8395927872754063  0.5000000000000000
 
  0.00000000E+00  0.00000000E+00  0.00000000E+00
  0.00000000E+00  0.00000000E+00  0.00000000E+00
  0.00000000E+00  0.00000000E+00  0.00000000E+00
  0.00000000E+00  0.00000000E+00  0.00000000E+00
  0.00000000E+00  0.00000000E+00  0.00000000E+00
  0.00000000E+00  0.00000000E+00  0.00000000E+00
  0.00000000E+00  0.00000000E+00  0.00000000E+00
  0.00000000E+00  0.00000000E+00  0.00000000E+00
  0.00000000E+00  0.00000000E+00  0.00000000E+00
  0.00000000E+00  0.00000000E+00  0.00000000E+00
  0.00000000E+00  0.00000000E+00  0.00000000E+00
  0.00000000E+00  0.00000000E+00  0.00000000E+00
  0.00000000E+00  0.00000000E+00  0.00000000E+00
  0.00000000E+00  0.00000000E+00  0.00000000E+00
  0.00000000E+00  0.00000000E+00  0.00000000E+00
  0.00000000E+00  0.00000000E+00  0.00000000E+00
  0.00000000E+00  0.00000000E+00  0.00000000E+00
  0.00000000E+00  0.00000000E+00  0.00000000E+00
  0.00000000E+00  0.00000000E+00  0.00000000E+00
  0.00000000E+00  0.00000000E+00  0.00000000E+00
