Co1Sb3   [BCC,BCC,cI32] (STD_PRIM doi:10
   1.00000000000000     
    -4.5445700726701297    4.5445700726701297    4.5445700726701297
     4.5445700726701297   -4.5445700726701297    4.5445700726701297
     4.5445700726701297    4.5445700726701297   -4.5445700726701297
   4  12
Direct
 -0.0000000000000000  0.0000000000000000  0.5000000000000000
  0.5000000000000000 -0.0000000000000000  0.0000000000000000
  0.0000000000000000  0.5000000000000000  0.0000000000000000
  0.5000000000000000  0.5000000000000000  0.5000000000000000
  0.8407534268370886  0.6661673182783252  0.5069207451154137
  0.8407534268370886  0.3338326817216747  0.1745861085587634
  0.1592465731629114  0.6661673182783252  0.8254138914412367
  0.1592465731629114  0.3338326817216747  0.4930792548845862
  0.8254138914412367  0.1592465731629114  0.6661673182783252
  0.4930792548845862  0.1592465731629114  0.3338326817216747
  0.5069207451154137  0.8407534268370886  0.6661673182783252
  0.1745861085587634  0.8407534268370886  0.3338326817216747
  0.3338326817216747  0.1745861085587634  0.8407534268370886
  0.6661673182783252  0.5069207451154137  0.8407534268370886
  0.3338326817216747  0.4930792548845862  0.1592465731629114
  0.6661673182783252  0.8254138914412367  0.1592465731629114
 
  0.00000000E+00  0.00000000E+00  0.00000000E+00
  0.00000000E+00  0.00000000E+00  0.00000000E+00
  0.00000000E+00  0.00000000E+00  0.00000000E+00
  0.00000000E+00  0.00000000E+00  0.00000000E+00
  0.00000000E+00  0.00000000E+00  0.00000000E+00
  0.00000000E+00  0.00000000E+00  0.00000000E+00
  0.00000000E+00  0.00000000E+00  0.00000000E+00
  0.00000000E+00  0.00000000E+00  0.00000000E+00
  0.00000000E+00  0.00000000E+00  0.00000000E+00
  0.00000000E+00  0.00000000E+00  0.00000000E+00
  0.00000000E+00  0.00000000E+00  0.00000000E+00
  0.00000000E+00  0.00000000E+00  0.00000000E+00
  0.00000000E+00  0.00000000E+00  0.00000000E+00
  0.00000000E+00  0.00000000E+00  0.00000000E+00
  0.00000000E+00  0.00000000E+00  0.00000000E+00
  0.00000000E+00  0.00000000E+00  0.00000000E+00
