Er2In1Ni2 #127 - (Er2In1Ni2_ICSD_630690)
    1.000000000000000     
     7.3057692094687532    0.0000000000000000    0.0000000000000000
     0.0000000000000000    7.3057692094687532    0.0000000000000000
     0.0000000000000000    0.0000000000000000    3.6044597480175611
   4   2   4
Direct
  0.1734368185138535  0.6734368185138535  0.5000000000000000
  0.8265631814861465  0.3265631814861465  0.5000000000000000
  0.3265631814861465  0.1734368185138535  0.5000000000000000
  0.6734368185138535  0.8265631814861465  0.5000000000000000
  0.0000000000000000  0.0000000000000000  0.0000000000000000
  0.5000000000000000  0.5000000000000000  0.0000000000000000
  0.6218780568839624  0.1218780568839624  0.0000000000000000
  0.3781219431160375  0.8781219431160376  0.0000000000000000
  0.8781219431160376  0.6218780568839624  0.0000000000000000
  0.1218780568839624  0.3781219431160375  0.0000000000000000
 
  0.00000000E+00  0.00000000E+00  0.00000000E+00
  0.00000000E+00  0.00000000E+00  0.00000000E+00
  0.00000000E+00  0.00000000E+00  0.00000000E+00
  0.00000000E+00  0.00000000E+00  0.00000000E+00
  0.00000000E+00  0.00000000E+00  0.00000000E+00
  0.00000000E+00  0.00000000E+00  0.00000000E+00
  0.00000000E+00  0.00000000E+00  0.00000000E+00
  0.00000000E+00  0.00000000E+00  0.00000000E+00
  0.00000000E+00  0.00000000E+00  0.00000000E+00
  0.00000000E+00  0.00000000E+00  0.00000000E+00
