Ge1Pd2Y1   [ORC,ORC,oP16] (STD_PRIM doi:
   1.00000000000000     
     5.6182519136347508    0.0000000000000000    0.0000000000000000
     0.0000000000000000    7.4200402924551501    0.0000000000000000
     0.0000000000000000    0.0000000000000000    7.1308945230558152
   4   8   4
Direct
  0.6456543792573435  0.3801305595650758  0.7500000000000000
  0.1456543792573436  0.1198694404349242  0.2500000000000000
  0.3543456207426564  0.6198694404349242  0.2500000000000000
  0.8543456207426565  0.8801305595650758  0.7500000000000000
  0.9111242942016324  0.1813884734139755  0.9489412324092269
  0.4111242942016324  0.3186115265860244  0.0510587675907731
  0.0888757057983676  0.8186115265860244  0.4489412324092269
  0.5888757057983676  0.6813884734139756  0.5510587675907731
  0.0888757057983676  0.8186115265860244  0.0510587675907731
  0.5888757057983676  0.6813884734139756  0.9489412324092269
  0.9111242942016324  0.1813884734139755  0.5510587675907731
  0.4111242942016324  0.3186115265860244  0.4489412324092269
  0.3531085108696211  0.0285041335676271  0.7500000000000000
  0.8531085108696211  0.4714958664323728  0.2500000000000000
  0.6468914891303789  0.9714958664323728  0.2500000000000000
  0.1468914891303789  0.5285041335676272  0.7500000000000000
 
  0.00000000E+00  0.00000000E+00  0.00000000E+00
  0.00000000E+00  0.00000000E+00  0.00000000E+00
  0.00000000E+00  0.00000000E+00  0.00000000E+00
  0.00000000E+00  0.00000000E+00  0.00000000E+00
  0.00000000E+00  0.00000000E+00  0.00000000E+00
  0.00000000E+00  0.00000000E+00  0.00000000E+00
  0.00000000E+00  0.00000000E+00  0.00000000E+00
  0.00000000E+00  0.00000000E+00  0.00000000E+00
  0.00000000E+00  0.00000000E+00  0.00000000E+00
  0.00000000E+00  0.00000000E+00  0.00000000E+00
  0.00000000E+00  0.00000000E+00  0.00000000E+00
  0.00000000E+00  0.00000000E+00  0.00000000E+00
  0.00000000E+00  0.00000000E+00  0.00000000E+00
  0.00000000E+00  0.00000000E+00  0.00000000E+00
  0.00000000E+00  0.00000000E+00  0.00000000E+00
  0.00000000E+00  0.00000000E+00  0.00000000E+00
