C1Tl1Y3   [CUB,CUB,cP5] (STD_PRIM doi:10
   1.00000000000000     
     4.9323709880214208    0.0000000000000000    0.0000000000000000
     0.0000000000000000    4.9323709880214208    0.0000000000000000
     0.0000000000000000    0.0000000000000000    4.9323709880214208
   1   1   3
Direct
  0.5000000000000000  0.5000000000000000  0.5000000000000000
  0.0000000000000000  0.0000000000000000  0.0000000000000000
  0.5000000000000000  0.5000000000000000  0.0000000000000000
  0.0000000000000000  0.5000000000000000  0.5000000000000000
  0.5000000000000000  0.0000000000000000  0.5000000000000000
 
  0.00000000E+00  0.00000000E+00  0.00000000E+00
  0.00000000E+00  0.00000000E+00  0.00000000E+00
  0.00000000E+00  0.00000000E+00  0.00000000E+00
  0.00000000E+00  0.00000000E+00  0.00000000E+00
  0.00000000E+00  0.00000000E+00  0.00000000E+00
