O2Si1   [TET,TET,tP6] (STD_PRIM doi:10.1
   1.00000000000000     
     4.2316803717071254    0.0000000000000000    0.0000000000000000
     0.0000000000000000    4.2316803717071254    0.0000000000000000
     0.0000000000000000    0.0000000000000000    2.6934184642504868
   4   2
Direct
  0.3067313184871664  0.3067313184871664  0.0000000000000000
  0.6932686815128336  0.6932686815128336 -0.0000000000000000
  0.1932686815128336  0.8067313184871664  0.5000000000000000
  0.8067313184871664  0.1932686815128336  0.5000000000000000
  0.0000000000000000  0.0000000000000000  0.0000000000000000
  0.5000000000000000  0.5000000000000000  0.5000000000000000
 
  0.00000000E+00  0.00000000E+00  0.00000000E+00
  0.00000000E+00  0.00000000E+00  0.00000000E+00
  0.00000000E+00  0.00000000E+00  0.00000000E+00
  0.00000000E+00  0.00000000E+00  0.00000000E+00
  0.00000000E+00  0.00000000E+00  0.00000000E+00
  0.00000000E+00  0.00000000E+00  0.00000000E+00
